# vtk DataFile Version 2.0
Riceball DEM simulation
ASCII
DATASET UNSTRUCTURED_GRID
POINTS 1022 float
100.000000 100.000000 75.002500	100.000000 186.364000 75.002500	100.000000 272.727000 75.002500	100.000000 359.091000 75.002500	100.000000 445.455000 75.002500	100.000000 531.818000 75.002500	100.000000 618.182000 75.002500	100.000000 704.546000 75.002500	100.000000 790.909000 75.002500	100.000000 877.273000 75.002500	100.000000 963.636000 75.002500	100.000000 1050.000000 75.002500	100.000000 1136.360000 75.002500	100.000000 1222.730000 75.002500	100.000000 1309.090000 75.002500	100.000000 1395.450000 75.002500	100.000000 1481.820000 75.002500	100.000000 1568.180000 75.002500	100.000000 1654.550000 75.002500	100.000000 1740.910000 75.002500	100.000000 1827.270000 75.002500	100.000000 1913.640000 75.002500	100.000000 2000.000000 75.002500	14900.000000 100.000000 75.002500	14900.000000 186.364000 75.002500	14900.000000 272.727000 75.002500	14900.000000 359.091000 75.002500	14900.000000 445.455000 75.002500	14900.000000 531.818000 75.002500	14900.000000 618.182000 75.002500	14900.000000 704.546000 75.002500	14900.000000 790.909000 75.002500	14900.000000 877.273000 75.002500	14900.000000 963.636000 75.002500	14900.000000 1050.000000 75.002500	14900.000000 1136.360000 75.002500	14900.000000 1222.730000 75.002500	14900.000000 1309.090000 75.002500	14900.000000 1395.450000 75.002500	14900.000000 1481.820000 75.002500	14900.000000 1568.180000 75.002500	14900.000000 1654.550000 75.002500	14900.000000 1740.910000 75.002500	14900.000000 1827.270000 75.002500	14900.000000 1913.640000 75.002500	14900.000000 2000.000000 75.002500	200.000000 100.000000 75.002500	282.857000 100.000000 75.002500	365.714000 100.000000 75.002500	448.571000 100.000000 75.002500	531.429000 100.000000 75.002500	614.286000 100.000000 75.002500	697.143000 100.000000 75.002500	780.000000 100.000000 75.002500	862.857000 100.000000 75.002500	945.714000 100.000000 75.002500	1028.570000 100.000000 75.002500	1111.430000 100.000000 75.002500	1194.290000 100.000000 75.002500	1277.140000 100.000000 75.002500	1360.000000 100.000000 75.002500	1442.860000 100.000000 75.002500	1525.710000 100.000000 75.002500	1608.570000 100.000000 75.002500	1691.430000 100.000000 75.002500	1774.290000 100.000000 75.002500	1857.140000 100.000000 75.002500	1940.000000 100.000000 75.002500	2022.860000 100.000000 75.002500	2105.710000 100.000000 75.002500	2188.570000 100.000000 75.002500	2271.430000 100.000000 75.002500	2354.290000 100.000000 75.002500	2437.140000 100.000000 75.002500	2520.000000 100.000000 75.002500	2602.860000 100.000000 75.002500	2685.710000 100.000000 75.002500	2768.570000 100.000000 75.002500	2851.430000 100.000000 75.002500	2934.290000 100.000000 75.002500	3017.140000 100.000000 75.002500	3100.000000 100.000000 75.002500	3182.860000 100.000000 75.002500	3265.720000 100.000000 75.002500	3348.570000 100.000000 75.002500	3431.430000 100.000000 75.002500	3514.290000 100.000000 75.002500	3597.140000 100.000000 75.002500	3680.000000 100.000000 75.002500	3762.860000 100.000000 75.002500	3845.720000 100.000000 75.002500	3928.570000 100.000000 75.002500	4011.430000 100.000000 75.002500	4094.290000 100.000000 75.002500	4177.140000 100.000000 75.002500	4260.000000 100.000000 75.002500	4342.860000 100.000000 75.002500	4425.710000 100.000000 75.002500	4508.570000 100.000000 75.002500	4591.430000 100.000000 75.002500	4674.290000 100.000000 75.002500	4757.140000 100.000000 75.002500	4840.000000 100.000000 75.002500	4922.860000 100.000000 75.002500	5005.710000 100.000000 75.002500	5088.570000 100.000000 75.002500	5171.430000 100.000000 75.002500	5254.280000 100.000000 75.002500	5337.140000 100.000000 75.002500	5420.000000 100.000000 75.002500	5502.850000 100.000000 75.002500	5585.710000 100.000000 75.002500	5668.570000 100.000000 75.002500	5751.430000 100.000000 75.002500	5834.280000 100.000000 75.002500	5917.140000 100.000000 75.002500	6000.000000 100.000000 75.002500	6082.850000 100.000000 75.002500	6165.710000 100.000000 75.002500	6248.570000 100.000000 75.002500	6331.420000 100.000000 75.002500	6414.280000 100.000000 75.002500	6497.140000 100.000000 75.002500	6580.000000 100.000000 75.002500	6662.850000 100.000000 75.002500	6745.710000 100.000000 75.002500	6828.570000 100.000000 75.002500	6911.420000 100.000000 75.002500	6994.280000 100.000000 75.002500	7077.140000 100.000000 75.002500	7159.990000 100.000000 75.002500	7242.850000 100.000000 75.002500	7325.710000 100.000000 75.002500	7408.560000 100.000000 75.002500	7491.420000 100.000000 75.002500	7574.280000 100.000000 75.002500	7657.140000 100.000000 75.002500	7739.990000 100.000000 75.002500	7822.850000 100.000000 75.002500	7905.710000 100.000000 75.002500	7988.560000 100.000000 75.002500	8071.420000 100.000000 75.002500	8154.280000 100.000000 75.002500	8237.130000 100.000000 75.002500	8319.990000 100.000000 75.002500	8402.850000 100.000000 75.002500	8485.710000 100.000000 75.002500	8568.560000 100.000000 75.002500	8651.420000 100.000000 75.002500	8734.280000 100.000000 75.002500	8817.140000 100.000000 75.002500	8899.990000 100.000000 75.002500	8982.850000 100.000000 75.002500	9065.710000 100.000000 75.002500	9148.570000 100.000000 75.002500	9231.420000 100.000000 75.002500	9314.280000 100.000000 75.002500	9397.140000 100.000000 75.002500	9480.000000 100.000000 75.002500	9562.850000 100.000000 75.002500	9645.710000 100.000000 75.002500	9728.570000 100.000000 75.002500	9811.420000 100.000000 75.002500	9894.280000 100.000000 75.002500	9977.140000 100.000000 75.002500	10060.000000 100.000000 75.002500	10142.900000 100.000000 75.002500	10225.700000 100.000000 75.002500	10308.600000 100.000000 75.002500	10391.400000 100.000000 75.002500	10474.300000 100.000000 75.002500	10557.100000 100.000000 75.002500	10640.000000 100.000000 75.002500	10722.900000 100.000000 75.002500	10805.700000 100.000000 75.002500	10888.600000 100.000000 75.002500	10971.400000 100.000000 75.002500	11054.300000 100.000000 75.002500	11137.100000 100.000000 75.002500	11220.000000 100.000000 75.002500	11302.900000 100.000000 75.002500	11385.700000 100.000000 75.002500	11468.600000 100.000000 75.002500	11551.400000 100.000000 75.002500	11634.300000 100.000000 75.002500	11717.100000 100.000000 75.002500	11800.000000 100.000000 75.002500	11882.900000 100.000000 75.002500	11965.700000 100.000000 75.002500	12048.600000 100.000000 75.002500	12131.400000 100.000000 75.002500	12214.300000 100.000000 75.002500	12297.100000 100.000000 75.002500	12380.000000 100.000000 75.002500	12462.900000 100.000000 75.002500	12545.700000 100.000000 75.002500	12628.600000 100.000000 75.002500	12711.400000 100.000000 75.002500	12794.300000 100.000000 75.002500	12877.100000 100.000000 75.002500	12960.000000 100.000000 75.002500	13042.900000 100.000000 75.002500	13125.700000 100.000000 75.002500	13208.600000 100.000000 75.002500	13291.400000 100.000000 75.002500	13374.300000 100.000000 75.002500	13457.200000 100.000000 75.002500	13540.000000 100.000000 75.002500	13622.900000 100.000000 75.002500	13705.700000 100.000000 75.002500	13788.600000 100.000000 75.002500	13871.400000 100.000000 75.002500	13954.300000 100.000000 75.002500	14037.200000 100.000000 75.002500	14120.000000 100.000000 75.002500	14202.900000 100.000000 75.002500	14285.700000 100.000000 75.002500	14368.600000 100.000000 75.002500	14451.400000 100.000000 75.002500	14534.300000 100.000000 75.002500	14617.200000 100.000000 75.002500	14700.000000 100.000000 75.002500	7735.080000 466.269000 75.002500	8387.680000 620.814000 75.002500	6929.790000 651.962000 75.002500	7899.240000 195.155000 75.002500	6314.550000 447.029000 75.002500	9263.910000 392.754000 75.002500	8205.430000 343.482000 75.002500	7657.570000 659.042000 75.002500	9602.100000 238.096000 75.002500	5206.650000 190.118000 75.002500	8167.630000 567.224000 75.002500	6950.740000 184.803000 75.002500	8051.150000 554.590000 75.002500	8030.660000 187.809000 75.002500	5558.520000 192.757000 75.002500	6485.240000 196.328000 75.002500	8726.490000 455.307000 75.002500	7531.130000 187.477000 75.002500	8306.790000 405.433000 75.002500	4756.790000 229.787000 75.002500	8668.130000 292.185000 75.002500	6074.320000 228.592000 75.002500	7712.220000 336.867000 75.002500	7038.420000 602.598000 75.002500	8218.450000 672.586000 75.002500	5461.370000 308.749000 75.002500	9242.880000 228.299000 75.002500	8019.910000 331.978000 75.002500	8368.170000 305.418000 75.002500	6939.090000 535.806000 75.002500	6107.550000 338.943000 75.002500	8161.060000 451.091000 75.002500	9060.360000 435.164000 75.002500	8787.300000 299.687000 75.002500	6501.340000 312.854000 75.002500	8427.860000 403.930000 75.002500	7392.550000 511.544000 75.002500	8192.950000 185.793000 75.002500	8371.540000 505.338000 75.002500	7627.550000 423.100000 75.002500	7150.570000 293.432000 75.002500	9469.880000 195.069000 75.002500	9353.000000 187.857000 75.002500	7507.720000 489.636000 75.002500	8497.940000 497.454000 75.002500	8499.960000 195.815000 75.002500	6733.050000 365.254000 75.002500	6851.610000 356.236000 75.002500	8305.570000 209.081000 75.002500	6953.590000 415.105000 75.002500	7747.190000 581.564000 75.002500	5441.040000 193.893000 75.002500	7627.650000 252.368000 75.002500	8616.590000 187.234000 75.002500	5703.630000 187.469000 75.002500	8029.200000 670.144000 75.002500	7782.590000 187.604000 75.002500	6955.000000 298.596000 75.002500	7045.010000 487.113000 75.002500	6620.390000 186.496000 75.002500	6798.460000 463.944000 75.002500	6731.360000 232.018000 75.002500	7288.040000 458.231000 75.002500	6206.990000 399.575000 75.002500	7061.990000 218.140000 75.002500	8606.930000 393.772000 75.002500	8976.810000 353.533000 75.002500	7185.280000 403.530000 75.002500	8009.110000 446.283000 75.002500	8648.010000 541.196000 75.002500	8914.890000 194.460000 75.002500	7245.790000 227.393000 75.002500	5038.070000 266.729000 75.002500	8735.350000 195.490000 75.002500	6847.820000 236.870000 75.002500	5820.090000 286.543000 75.002500	6200.490000 189.480000 75.002500	7828.880000 398.288000 75.002500	9122.290000 194.883000 75.002500	7905.840000 310.974000 75.002500	6629.400000 422.807000 75.002500	6273.510000 278.732000 75.002500	8115.000000 268.650000 75.002500	7420.530000 343.966000 75.002500	5242.680000 300.703000 75.002500	6085.000000 494.248000 75.002500	7282.250000 338.515000 75.002500	7926.060000 526.333000 75.002500	7468.770000 599.867000 75.002500	7858.950000 620.119000 75.002500	6385.510000 307.508000 75.002500	5323.760000 197.426000 75.002500	8511.790000 322.716000 75.002500	7536.930000 326.685000 75.002500	7366.120000 186.451000 75.002500	9019.490000 246.663000 75.002500	5957.470000 187.743000 75.002500	6635.370000 300.644000 75.002500	9150.050000 359.921000 75.002500	6366.300000 191.230000 75.002500	6558.450000 247.377000 75.002500	7394.810000 426.025000 75.002500	7583.050000 611.905000 75.002500	7084.110000 352.603000 75.002500	9519.860000 269.208000 75.002500	7623.750000 337.728000 75.002500	6310.140000 358.919000 75.002500	6573.070000 359.033000 75.002500	7347.940000 394.464000 75.002500	7210.870000 606.477000 75.002500	9014.630000 159.316000 75.002500	6284.360000 158.238000 75.002500	6790.020000 750.922000 75.002500	7986.500000 747.118000 75.002500	7615.710000 156.178000 75.002500	9165.110000 272.499000 75.002500	7160.390000 196.742000 75.002500	7447.960000 214.709000 75.002500	7817.400000 312.271000 75.002500	6384.750000 395.026000 75.002500	7101.320000 420.693000 75.002500	5875.760000 153.689000 75.002500	8438.130000 255.488000 75.002500	5330.800000 287.038000 75.002500	5902.240000 254.699000 75.002500	7939.620000 391.971000 75.002500	9196.410000 153.977000 75.002500	7700.250000 153.184000 75.002500	6843.280000 669.675000 75.002500	7124.490000 582.825000 75.002500	8830.680000 223.526000 75.002500	8834.590000 372.838000 75.002500	7551.190000 564.978000 75.002500	6486.660000 408.364000 75.002500	7181.410000 491.354000 75.002500	8364.750000 150.278000 75.002500	4797.910000 152.949000 75.002500	8283.880000 489.621000 75.002500	8564.810000 255.545000 75.002500	8869.020000 268.993000 75.002500	8086.010000 404.196000 75.002500	6234.230000 482.497000 75.002500	7049.390000 400.237000 75.002500	6787.140000 156.139000 75.002500	6593.640000 504.198000 75.002500	5631.220000 239.291000 75.002500	6121.710000 153.584000 75.002500	9410.160000 257.731000 75.002500	7824.390000 537.426000 75.002500	7699.930000 209.258000 75.002500	6023.160000 367.841000 75.002500	8702.450000 371.883000 75.002500	6155.940000 265.314000 75.002500	7486.580000 400.914000 75.002500	6440.020000 376.137000 75.002500	4549.990000 155.984000 75.002500	6039.400000 151.626000 75.002500	5384.770000 263.034000 75.002500	7129.360000 469.962000 75.002500	8117.680000 356.426000 75.002500	9224.110000 313.534000 75.002500	7119.420000 153.168000 75.002500	6884.970000 468.007000 75.002500	6191.820000 312.222000 75.002500	7974.430000 600.433000 75.002500	7906.780000 440.356000 75.002500	6701.150000 152.603000 75.002500	7970.950000 252.101000 75.002500	8113.620000 697.588000 75.002500	8925.710000 282.290000 75.002500	7285.560000 152.257000 75.002500	9062.250000 325.805000 75.002500	5792.850000 156.203000 75.002500	7226.720000 523.943000 75.002500	7046.910000 304.976000 75.002500	7410.870000 259.271000 75.002500	5127.920000 153.458000 75.002500	8281.120000 300.059000 75.002500	6550.510000 463.346000 75.002500	5736.490000 267.055000 75.002500	8411.600000 185.775000 75.002500	9606.450000 152.338000 75.002500	5857.570000 207.690000 75.002500	7835.190000 257.436000 75.002500	8584.800000 479.562000 75.002500	7327.250000 264.121000 75.002500	7018.320000 355.462000 75.002500	9103.270000 282.433000 75.002500	8235.270000 261.899000 75.002500	7542.410000 412.256000 75.002500	6543.010000 406.800000 75.002500	4847.320000 181.923000 75.002500	9550.810000 165.806000 75.002500	6786.570000 298.473000 75.002500	7481.340000 260.393000 75.002500	8777.130000 385.440000 75.002500	7774.510000 274.503000 75.002500	8830.600000 166.083000 75.002500	6712.850000 448.640000 75.002500	7201.290000 153.108000 75.002500	7409.010000 939.948000 75.002500	5217.140000 415.269000 75.002500	7638.550000 1189.500000 75.002500	6619.000000 662.538000 75.002500	7962.720000 1033.580000 75.002500	7179.920000 779.045000 75.002500	8548.520000 602.917000 75.002500	8148.440000 872.431000 75.002500	8904.210000 852.959000 75.002500	8828.330000 513.718000 75.002500	6463.140000 698.519000 75.002500	7123.430000 882.647000 75.002500	7252.890000 685.385000 75.002500	6917.090000 903.672000 75.002500	8353.330000 940.414000 75.002500	10167.000000 193.431000 75.002500	7806.390000 806.749000 75.002500	4953.040000 349.538000 75.002500	4869.760000 266.560000 75.002500	7690.770000 779.971000 75.002500	7320.370000 843.967000 75.002500	7295.230000 576.003000 75.002500	6754.940000 672.452000 75.002500	4639.760000 246.630000 75.002500	7025.460000 949.569000 75.002500	9033.040000 549.616000 75.002500	10442.400000 308.296000 75.002500	9714.150000 196.692000 75.002500	6703.940000 927.912000 75.002500	10518.900000 189.737000 75.002500	8030.870000 884.479000 75.002500	8996.560000 661.838000 75.002500	6829.540000 578.813000 75.002500	7703.930000 1090.280000 75.002500	8872.170000 622.443000 75.002500	7899.830000 730.229000 75.002500	9738.160000 345.147000 75.002500	8496.680000 836.413000 75.002500	7520.510000 1140.110000 75.002500	9100.080000 718.342000 75.002500	9847.170000 304.098000 75.002500	5580.020000 310.333000 75.002500	8932.550000 460.283000 75.002500	7136.130000 669.316000 75.002500	8469.170000 971.520000 75.002500	9439.440000 363.610000 75.002500	6352.450000 565.502000 75.002500	5291.430000 505.151000 75.002500	8903.630000 735.230000 75.002500	7141.180000 1000.290000 75.002500	7542.380000 689.019000 75.002500	5872.130000 504.766000 75.002500	3882.760000 190.679000 75.002500	9336.640000 303.050000 75.002500	8376.010000 825.166000 75.002500	9007.570000 792.792000 75.002500	8750.600000 600.607000 75.002500	8325.630000 719.784000 75.002500	6680.420000 527.478000 75.002500	5926.550000 338.586000 75.002500	7365.830000 734.805000 75.002500	4107.830000 238.726000 75.002500	8633.670000 837.906000 75.002500	10048.400000 197.494000 75.002500	4454.420000 194.087000 75.002500	5979.350000 444.370000 75.002500	6104.640000 608.218000 75.002500	5127.910000 340.551000 75.002500	7824.920000 922.406000 75.002500	7027.200000 717.940000 75.002500	8079.600000 777.285000 75.002500	7439.400000 826.163000 75.002500	9975.180000 399.031000 75.002500	8231.490000 790.021000 75.002500	7526.120000 917.093000 75.002500	4335.180000 197.286000 75.002500	6675.790000 764.439000 75.002500	7770.680000 695.473000 75.002500	9962.540000 278.433000 75.002500	9854.080000 188.172000 75.002500	7555.570000 804.087000 75.002500	6297.250000 742.081000 75.002500	8443.270000 727.830000 75.002500	7636.110000 540.623000 75.002500	7717.370000 973.430000 75.002500	9620.710000 353.172000 75.002500	10114.200000 297.384000 75.002500	5707.460000 350.256000 75.002500	9146.980000 516.031000 75.002500	7815.750000 1039.850000 75.002500	6428.370000 473.108000 75.002500	5330.230000 379.291000 75.002500	7917.690000 847.164000 75.002500	7015.910000 833.287000 75.002500	6524.510000 799.872000 75.002500	8686.060000 698.102000 75.002500	5752.670000 506.405000 75.002500	6469.960000 582.025000 75.002500	5499.050000 419.371000 75.002500	7640.640000 885.114000 75.002500	6160.290000 538.920000 75.002500	6014.680000 550.064000 75.002500	5414.730000 398.942000 75.002500	8249.360000 534.719000 75.002500	7380.010000 599.757000 75.002500	6904.460000 735.485000 75.002500	6191.660000 588.616000 75.002500	6689.800000 613.224000 75.002500	10227.000000 259.210000 75.002500	6024.270000 310.475000 75.002500	6061.400000 411.801000 75.002500	5678.410000 269.835000 75.002500	8520.880000 686.353000 75.002500	5049.780000 156.322000 75.002500	8089.160000 950.933000 75.002500	9680.910000 278.389000 75.002500	6742.410000 587.141000 75.002500	7449.380000 687.502000 75.002500	7733.310000 859.049000 75.002500	7127.920000 526.363000 75.002500	5984.160000 270.446000 75.002500	6662.790000 850.463000 75.002500	7398.150000 1027.910000 75.002500	6858.790000 838.594000 75.002500	4555.380000 215.460000 75.002500	7372.280000 1080.310000 75.002500	8158.200000 737.016000 75.002500	6552.750000 546.434000 75.002500	8633.410000 627.992000 75.002500	8302.760000 561.024000 75.002500	5142.910000 252.812000 75.002500	6720.190000 841.420000 75.002500	5896.240000 421.302000 75.002500	5957.850000 531.451000 75.002500	6829.640000 887.747000 75.002500	9936.620000 155.436000 75.002500	6920.670000 815.286000 75.002500	8814.530000 846.467000 75.002500	9534.670000 327.055000 75.002500	6554.330000 604.410000 75.002500	6606.280000 834.767000 75.002500	6392.180000 644.869000 75.002500	7335.660000 653.154000 75.002500	7614.890000 737.283000 75.002500	6274.160000 525.693000 75.002500	4903.780000 166.229000 75.002500	7994.880000 804.184000 75.002500	8702.480000 783.324000 75.002500	7848.750000 483.975000 75.002500	8029.450000 973.854000 75.002500	8124.160000 642.202000 75.002500	6954.420000 767.869000 75.002500	5702.060000 436.573000 75.002500	7399.620000 654.191000 75.002500	7969.180000 946.162000 75.002500	8429.730000 893.738000 75.002500	7886.470000 987.192000 75.002500	4468.320000 301.648000 75.002500	8911.700000 544.650000 75.002500	7641.680000 1027.170000 75.002500	6511.720000 505.003000 75.002500	6872.150000 782.563000 75.002500	6757.900000 798.226000 75.002500	8599.270000 675.938000 75.002500	9189.880000 439.674000 75.002500	8800.820000 673.867000 75.002500	10046.900000 351.537000 75.002500	7912.580000 935.239000 75.002500	8615.960000 751.372000 75.002500	6816.860000 800.374000 75.002500	6565.710000 877.817000 75.002500	9353.690000 389.996000 75.002500	6217.420000 537.147000 75.002500	4562.940000 289.723000 75.002500	8472.490000 645.192000 75.002500	6173.850000 481.818000 75.002500	7942.450000 650.510000 75.002500	4512.140000 261.081000 75.002500	7178.120000 557.165000 75.002500	8517.410000 411.047000 75.002500	9133.550000 604.316000 75.002500	7273.310000 770.314000 75.002500	6845.250000 729.099000 75.002500	4714.350000 153.844000 75.002500	6251.040000 585.282000 75.002500	5104.980000 207.568000 75.002500	8565.140000 723.323000 75.002500	8818.070000 427.391000 75.002500	9463.240000 281.243000 75.002500	5001.840000 189.613000 75.002500	6784.640000 850.317000 75.002500	6605.270000 574.554000 75.002500	7845.460000 1122.530000 75.002500	8147.730000 958.412000 75.002500	4961.380000 152.668000 75.002500	8952.520000 585.184000 75.002500	8291.860000 856.388000 75.002500	7615.050000 1103.290000 75.002500	8892.050000 376.338000 75.002500	8253.450000 592.427000 75.002500	9350.590000 626.893000 75.002500	6061.520000 840.223000 75.002500	8177.880000 1226.520000 75.002500	5722.560000 621.310000 75.002500	9267.470000 509.585000 75.002500	6388.360000 916.488000 75.002500	10093.100000 472.254000 75.002500	5811.990000 403.144000 75.002500	8906.070000 971.001000 75.002500	7570.270000 1423.670000 75.002500	7288.960000 1238.450000 75.002500	6929.990000 1021.310000 75.002500	7309.030000 1018.220000 75.002500	8758.490000 1121.740000 75.002500	8677.640000 1023.760000 75.002500	8028.520000 1243.200000 75.002500	6340.890000 1026.040000 75.002500	10653.300000 226.285000 75.002500	6817.530000 973.907000 75.002500	8795.240000 1009.740000 75.002500	10930.600000 190.315000 75.002500	5938.590000 883.950000 75.002500	9474.220000 720.809000 75.002500	4378.660000 306.843000 75.002500	9557.430000 451.417000 75.002500	7051.140000 1335.650000 75.002500	7917.460000 1282.090000 75.002500	7826.160000 1207.900000 75.002500	6401.290000 798.786000 75.002500	10765.800000 189.764000 75.002500	7470.350000 1248.620000 75.002500	9357.900000 745.775000 75.002500	4312.160000 406.046000 75.002500	8723.420000 915.597000 75.002500	7358.600000 1341.950000 75.002500	10676.900000 343.231000 75.002500	6652.260000 1035.430000 75.002500	9689.030000 451.483000 75.002500	6284.450000 860.359000 75.002500	6995.710000 1231.370000 75.002500	5408.970000 495.565000 75.002500	9202.850000 661.336000 75.002500	10284.200000 193.376000 75.002500	8310.520000 1050.720000 75.002500	4259.900000 299.264000 75.002500	8092.250000 1144.500000 75.002500	8194.780000 1083.790000 75.002500	8020.920000 1417.350000 75.002500	6090.960000 725.191000 75.002500	6876.280000 1127.240000 75.002500	4216.700000 189.355000 75.002500	5520.350000 535.116000 75.002500	8235.950000 957.547000 75.002500	5209.210000 590.057000 75.002500	7383.310000 1167.630000 75.002500	4151.420000 349.568000 75.002500	4996.640000 533.900000 75.002500	7692.680000 1295.990000 75.002500	3888.810000 309.661000 75.002500	6195.440000 938.966000 75.002500	5615.380000 423.276000 75.002500	8451.400000 1088.480000 75.002500	10401.700000 197.221000 75.002500	6513.160000 1058.570000 75.002500	7229.530000 1124.930000 75.002500	4536.390000 373.761000 75.002500	5638.500000 538.747000 75.002500	6504.250000 940.674000 75.002500	7171.670000 1259.460000 75.002500	5839.680000 737.276000 75.002500	6716.980000 1135.300000 75.002500	7807.290000 1326.330000 75.002500	5995.650000 652.874000 75.002500	6200.170000 675.554000 75.002500	9875.590000 464.494000 75.002500	5575.290000 639.824000 75.002500	8280.670000 1165.340000 75.002500	5881.990000 620.958000 75.002500	7233.650000 925.578000 75.002500	5134.200000 499.454000 75.002500	7041.510000 1064.590000 75.002500	9008.040000 912.357000 75.002500	9624.200000 549.708000 75.002500	9442.050000 480.169000 75.002500	5043.750000 424.176000 75.002500	8585.040000 945.708000 75.002500	7101.740000 1165.020000 75.002500	7456.030000 1456.610000 75.002500	7575.250000 1305.460000 75.002500	8395.690000 1193.970000 75.002500	4917.470000 623.502000 75.002500	7718.600000 1411.590000 75.002500	5968.130000 769.179000 75.002500	4335.450000 522.995000 75.002500	7487.700000 1027.480000 75.002500	9713.690000 628.187000 75.002500	6188.780000 792.072000 75.002500	10561.300000 300.775000 75.002500	3989.010000 243.842000 75.002500	8788.310000 760.633000 75.002500	8888.640000 1058.040000 75.002500	8527.090000 1038.570000 75.002500	8526.780000 1136.260000 75.002500	6610.650000 949.207000 75.002500	7949.670000 1364.540000 75.002500	5756.900000 703.639000 75.002500	6461.710000 863.313000 75.002500	7639.740000 1367.740000 75.002500	6961.960000 1104.570000 75.002500	4051.320000 308.460000 75.002500	5810.350000 571.536000 75.002500	10600.500000 155.294000 75.002500	7491.950000 1335.680000 75.002500	9200.780000 749.531000 75.002500	9102.770000 805.834000 75.002500	4449.460000 359.054000 75.002500	5078.230000 567.809000 75.002500	9073.050000 854.356000 75.002500	10847.900000 155.562000 75.002500	10730.700000 271.842000 75.002500	7082.630000 1252.170000 75.002500	6549.330000 715.535000 75.002500	8565.010000 781.231000 75.002500	7570.100000 994.798000 75.002500	6819.200000 1061.690000 75.002500	4693.560000 317.803000 75.002500	6910.540000 1208.070000 75.002500	4052.860000 156.197000 75.002500	4917.260000 495.587000 75.002500	7193.520000 1346.720000 75.002500	7893.160000 1088.540000 75.002500	8735.790000 830.135000 75.002500	7623.620000 971.602000 75.002500	6432.230000 994.236000 75.002500	7321.790000 931.244000 75.002500	8010.750000 1108.200000 75.002500	5919.020000 698.491000 75.002500	3969.870000 156.102000 75.002500	7995.600000 1326.470000 75.002500	6334.250000 659.491000 75.002500	7938.970000 1194.780000 75.002500	8078.050000 1008.210000 75.002500	7847.260000 1406.030000 75.002500	7989.710000 1163.170000 75.002500	4955.050000 439.263000 75.002500	5355.020000 565.911000 75.002500	7586.160000 1051.650000 75.002500	9336.080000 445.776000 75.002500	6375.320000 701.467000 75.002500	8586.790000 1035.140000 75.002500	9080.510000 630.849000 75.002500	8623.890000 1145.440000 75.002500	9388.310000 549.447000 75.002500	9157.490000 786.405000 75.002500	7222.170000 1036.240000 75.002500	10205.900000 481.849000 75.002500	10095.600000 383.954000 75.002500	5802.040000 658.157000 75.002500	7317.560000 1107.090000 75.002500	6398.290000 1159.180000 75.002500	9890.520000 379.075000 75.002500	6622.380000 892.160000 75.002500	7786.700000 1123.080000 75.002500	9927.000000 662.376000 75.002500	7555.150000 1220.360000 75.002500	9821.390000 389.887000 75.002500	7748.030000 1166.110000 75.002500	6761.430000 1059.650000 75.002500	9439.050000 632.170000 75.002500	9433.840000 799.447000 75.002500	7947.310000 1121.560000 75.002500	4135.010000 154.741000 75.002500	9212.060000 575.809000 75.002500	7431.180000 1094.300000 75.002500	8371.160000 1279.860000 75.002500	4944.610000 210.036000 75.002500	8394.160000 1019.850000 75.002500	7648.760000 1467.570000 75.002500	8106.880000 1059.110000 75.002500	6020.450000 918.193000 75.002500	7381.300000 1256.290000 75.002500	4750.010000 584.949000 75.002500	9448.230000 569.697000 75.002500	4619.620000 161.312000 75.002500	6108.890000 916.091000 75.002500	10848.100000 225.583000 75.002500	4616.620000 333.295000 75.002500	9287.870000 686.243000 75.002500	6280.530000 635.971000 75.002500	4222.380000 404.503000 75.002500	8106.110000 1286.080000 75.002500	7738.570000 1222.190000 75.002500	8558.620000 1087.910000 75.002500	5887.490000 811.689000 75.002500	5654.960000 678.535000 75.002500	6736.350000 1008.630000 75.002500	9775.780000 428.363000 75.002500	8047.890000 1059.510000 75.002500	7896.700000 1152.550000 75.002500	8141.400000 1013.930000 75.002500	6310.300000 1141.340000 75.002500	4862.530000 426.543000 75.002500	10196.200000 570.233000 75.002500	5842.870000 955.024000 75.002500	5314.110000 644.742000 75.002500	4831.870000 541.223000 75.002500	9983.070000 517.289000 75.002500	5106.900000 651.379000 75.002500	8042.230000 1561.640000 75.002500	5214.910000 827.385000 75.002500	5615.060000 949.675000 75.002500	5108.790000 770.482000 75.002500	5931.560000 1035.180000 75.002500	5661.590000 766.543000 75.002500	8357.970000 1483.420000 75.002500	9525.980000 614.960000 75.002500	8531.900000 1244.470000 75.002500	7861.210000 1595.270000 75.002500	5719.800000 1005.670000 75.002500	9106.380000 979.281000 75.002500	8501.600000 1448.170000 75.002500	9324.330000 1048.570000 75.002500	6244.190000 1308.330000 75.002500	7657.860000 1577.590000 75.002500	5907.130000 1152.010000 75.002500	5516.900000 883.487000 75.002500	10523.800000 413.486000 75.002500	6201.670000 1197.040000 75.002500	6661.810000 1240.620000 75.002500	8864.880000 1242.550000 75.002500	7494.070000 1582.280000 75.002500	4643.690000 596.837000 75.002500	10078.200000 590.100000 75.002500	5405.510000 842.359000 75.002500	9884.920000 583.575000 75.002500	5499.220000 765.964000 75.002500	8196.620000 1448.490000 75.002500	9375.010000 865.507000 75.002500	7138.140000 1416.050000 75.002500	8458.660000 1336.710000 75.002500	5001.840000 707.322000 75.002500	4747.050000 457.905000 75.002500	7341.590000 1489.240000 75.002500	7238.460000 1548.920000 75.002500	9511.650000 903.567000 75.002500	8229.860000 1334.010000 75.002500	6765.400000 1447.480000 75.002500	5430.070000 612.764000 75.002500	4778.840000 344.198000 75.002500	8343.970000 1365.050000 75.002500	6490.290000 1192.080000 75.002500	6572.970000 1389.190000 75.002500	8694.620000 1221.430000 75.002500	9159.670000 874.374000 75.002500	7360.170000 1606.880000 75.002500	6091.560000 1150.570000 75.002500	5818.240000 1072.200000 75.002500	6209.540000 1078.640000 75.002500	9280.220000 937.579000 75.002500	6483.310000 1310.640000 75.002500	4628.700000 448.138000 75.002500	9735.420000 745.496000 75.002500	9418.690000 976.723000 75.002500	6986.340000 1435.770000 75.002500	6811.190000 1337.300000 75.002500	7073.970000 1516.230000 75.002500	10012.200000 689.349000 75.002500	6687.840000 1356.690000 75.002500	9615.330000 692.487000 75.002500	6363.810000 1309.880000 75.002500	10289.600000 451.377000 75.002500	10404.600000 420.670000 75.002500	9843.560000 695.153000 75.002500	7937.780000 1503.490000 75.002500	6800.650000 1218.960000 75.002500	6926.030000 1538.900000 75.002500	9081.490000 1146.870000 75.002500	9264.660000 819.756000 75.002500	9564.880000 798.612000 75.002500	8972.830000 1086.400000 75.002500	7811.100000 1486.960000 75.002500	9778.240000 529.949000 75.002500	8977.810000 1205.330000 75.002500	10183.900000 395.801000 75.002500	8725.090000 1337.010000 75.002500	8621.820000 1410.200000 75.002500	9481.970000 1078.180000 75.002500	10470.500000 520.330000 75.002500	6930.600000 1330.960000 75.002500	6063.630000 994.657000 75.002500	9205.660000 1044.880000 75.002500	4507.100000 489.478000 75.002500	6597.700000 1140.990000 75.002500	5316.540000 763.722000 75.002500	5211.380000 708.327000 75.002500	10287.500000 332.136000 75.002500	7094.500000 1633.680000 75.002500	9200.170000 1163.830000 75.002500	4802.660000 657.015000 75.002500	5794.340000 846.493000 75.002500	5437.800000 926.091000 75.002500	7416.900000 1537.210000 75.002500	7437.720000 1652.110000 75.002500	9650.980000 774.674000 75.002500	7740.550000 1542.350000 75.002500	7225.350000 1397.250000 75.002500	5621.630000 846.933000 75.002500	7699.770000 1498.770000 75.002500	5301.350000 852.184000 75.002500	10201.600000 310.021000 75.002500	7241.200000 1312.750000 75.002500	6574.130000 994.669000 75.002500	9801.820000 615.973000 75.002500	6037.440000 1079.770000 75.002500	5410.200000 753.450000 75.002500	8284.200000 1431.280000 75.002500	5580.230000 803.766000 75.002500	6389.310000 1100.420000 75.002500	6880.370000 1258.170000 75.002500	5744.210000 920.066000 75.002500	9256.080000 732.766000 75.002500	8607.870000 1200.640000 75.002500	4400.740000 393.250000 75.002500	10364.500000 500.972000 75.002500	9515.450000 528.226000 75.002500	6584.110000 1285.880000 75.002500	7603.710000 1506.530000 75.002500	7272.050000 1361.160000 75.002500	4389.680000 451.656000 75.002500	9119.520000 1067.040000 75.002500	4587.540000 527.723000 75.002500	7544.160000 1508.720000 75.002500	7162.630000 1501.820000 75.002500	4454.490000 417.907000 75.002500	6144.690000 868.015000 75.002500	6739.710000 1283.970000 75.002500	8893.180000 1127.860000 75.002500	7301.720000 1410.830000 75.002500	6149.590000 1014.450000 75.002500	9971.910000 606.335000 75.002500	5688.620000 899.480000 75.002500	8783.220000 1206.890000 75.002500	9131.330000 1221.580000 75.002500	7890.290000 1366.210000 75.002500	7443.410000 1368.280000 75.002500	6445.570000 1115.870000 75.002500	4712.070000 539.639000 75.002500	10613.200000 406.342000 75.002500	5751.480000 763.115000 75.002500	5494.290000 676.680000 75.002500	8843.200000 1095.120000 75.002500	6898.440000 1454.090000 75.002500	8263.240000 1252.120000 75.002500	8542.320000 1368.640000 75.002500	8481.240000 1172.220000 75.002500	6255.800000 1002.870000 75.002500	8618.130000 1266.680000 75.002500	8942.490000 1287.850000 75.002500	8670.490000 1111.510000 75.002500	9355.550000 500.949000 75.002500	7150.090000 1563.350000 75.002500	8417.580000 1416.350000 75.002500	6874.250000 1400.320000 75.002500	8109.590000 1429.550000 75.002500	8082.560000 1482.150000 75.002500	5381.570000 702.044000 75.002500	5980.870000 961.793000 75.002500	7921.280000 1416.360000 75.002500	9053.830000 1050.540000 75.002500	8059.430000 1326.600000 75.002500	6118.570000 1065.300000 75.002500	4545.740000 570.530000 75.002500	9507.110000 992.571000 75.002500	9193.170000 956.810000 75.002500	8577.670000 1321.160000 75.002500	8998.440000 1000.950000 75.002500	8812.300000 1315.270000 75.002500	8097.410000 1371.660000 75.002500	8778.630000 1265.820000 75.002500	8133.900000 1512.600000 75.002500	8322.250000 1245.000000 75.002500	8637.000000 1322.450000 75.002500	6425.050000 1053.100000 75.002500	5580.700000 728.841000 75.002500	7004.780000 1144.310000 75.002500	7218.420000 1456.570000 75.002500	10344.600000 264.617000 75.002500	10281.100000 540.694000 75.002500	5022.970000 619.574000 75.002500	6847.110000 1484.610000 75.002500	6345.580000 1222.860000 75.002500	5705.710000 843.185000 75.002500	8141.520000 1332.720000 75.002500	6301.460000 946.987000 75.002500	5440.170000 700.410000 75.002500	6572.930000 1227.190000 75.002500	8616.360000 1086.870000 75.002500	5984.770000 1107.210000 75.002500	6404.830000 1218.400000 75.002500	6285.990000 1227.880000 75.002500	
CELLS 1632 4896
2 90 474	2 91 759	2 92 749	2 92 759	2 93 793	2 93 749	2 94 672	2 94 793	2 95 672	2 96 497	2 97 486	2 98 377	2 99 805	2 99 377	2 100 605	2 101 358	2 101 605	2 102 358	2 103 567	2 103 616	2 104 616	2 105 535	2 105 398	2 106 231	2 106 398	2 108 313	2 109 273	2 111 236	2 112 276	2 113 394	2 113 276	2 114 394	2 114 343	2 115 318	2 115 343	2 116 318	2 116 378	2 117 378	2 117 368	2 118 368	2 118 298	2 119 333	2 120 321	2 122 237	2 123 281	2 124 388	2 124 281	2 125 388	2 125 365	2 126 365	2 127 233	2 128 233	2 129 383	2 130 421	2 130 383	2 131 421	2 131 392	2 132 316	2 132 392	2 133 316	2 134 239	2 135 336	2 135 239	2 136 336	2 136 349	2 137 349	2 137 278	2 138 278	2 139 225	2 140 235	2 141 235	2 142 259	2 143 259	2 144 357	2 145 357	2 146 267	2 147 275	2 148 275	2 149 295	2 150 419	2 151 292	2 152 332	2 154 300	2 155 348	2 156 264	2 157 264	2 158 263	2 159 414	2 159 403	2 160 403	2 161 449	2 162 501	2 163 501	2 163 557	2 164 557	2 165 485	2 166 437	2 168 664	2 169 684	2 171 451	2 172 733	2 173 651	2 174 651	2 174 740	2 175 740	2 175 642	2 176 642	2 222 261	2 222 299	2 222 272	2 223 260	2 223 479	2 223 596	2 224 251	2 224 350	2 224 491	2 224 527	2 224 245	2 225 301	2 225 405	2 225 278	2 226 285	2 226 328	2 226 341	2 226 566	2 226 363	2 226 512	2 227 320	2 227 475	2 227 586	2 227 382	2 227 593	2 227 769	2 227 626	2 228 410	2 228 253	2 228 304	2 228 381	2 228 240	2 228 399	2 229 472	2 229 324	2 229 565	2 229 499	2 229 272	2 230 414	2 230 326	2 230 507	2 230 403	2 230 537	2 230 449	2 231 306	2 231 552	2 231 398	2 231 313	2 232 234	2 232 621	2 232 253	2 232 525	2 232 246	2 232 572	2 233 296	2 233 279	2 233 286	2 234 386	2 234 290	2 234 277	2 235 304	2 235 389	2 236 273	2 236 463	2 236 367	2 237 321	2 237 256	2 237 322	2 238 373	2 238 417	2 238 291	2 238 431	2 239 416	2 239 339	2 239 274	2 240 250	2 240 260	2 240 359	2 241 605	2 241 870	2 241 445	2 241 358	2 241 440	2 242 275	2 242 295	2 242 255	2 242 373	2 242 287	2 243 374	2 243 252	2 243 378	2 243 368	2 244 274	2 244 418	2 244 327	2 245 251	2 245 280	2 245 351	2 245 491	2 245 465	2 246 495	2 246 548	2 246 621	2 246 479	2 247 379	2 247 273	2 247 463	2 247 520	2 248 475	2 248 382	2 248 348	2 248 337	2 248 264	2 249 304	2 249 290	2 249 301	2 250 270	2 250 344	2 250 399	2 250 257	2 251 454	2 251 384	2 251 280	2 252 374	2 252 531	2 252 532	2 252 372	2 252 285	2 252 385	2 253 362	2 254 288	2 254 320	2 254 447	2 254 510	2 255 295	2 255 352	2 255 361	2 255 353	2 255 417	2 256 322	2 256 312	2 256 376	2 256 329	2 257 601	2 257 314	2 257 260	2 257 266	2 258 443	2 258 284	2 258 526	2 258 265	2 258 323	2 258 310	2 259 304	2 259 270	2 259 410	2 260 359	2 260 551	2 261 411	2 261 327	2 261 505	2 262 286	2 262 293	2 262 289	2 262 325	2 263 369	2 263 264	2 263 610	2 263 326	2 263 414	2 264 475	2 265 411	2 265 310	2 265 354	2 266 601	2 266 428	2 266 406	2 267 360	2 267 344	2 267 402	2 267 275	2 268 420	2 268 302	2 268 319	2 268 269	2 268 415	2 268 282	2 269 296	2 269 415	2 269 271	2 269 279	2 270 410	2 270 357	2 271 279	2 271 408	2 271 280	2 271 384	2 272 370	2 272 505	2 272 499	2 272 311	2 273 313	2 273 379	2 274 315	2 274 371	2 274 327	2 275 360	2 275 295	2 276 367	2 276 533	2 276 401	2 277 492	2 277 386	2 277 598	2 277 335	2 277 390	2 278 418	2 278 349	2 278 371	2 278 405	2 279 408	2 280 364	2 280 342	2 280 380	2 281 322	2 281 283	2 281 319	2 281 388	2 282 420	2 282 454	2 282 384	2 283 319	2 283 388	2 283 296	2 283 415	2 284 308	2 284 289	2 284 330	2 284 443	2 284 395	2 285 385	2 285 597	2 285 363	2 286 396	2 286 383	2 287 314	2 287 406	2 288 317	2 288 464	2 288 620	2 288 391	2 288 393	2 289 380	2 289 342	2 289 308	2 289 356	2 290 347	2 290 362	2 290 309	2 291 550	2 291 478	2 291 428	2 291 406	2 292 419	2 292 352	2 292 391	2 292 317	2 292 361	2 293 308	2 293 407	2 293 421	2 293 392	2 294 607	2 294 611	2 294 489	2 294 439	2 296 415	2 297 404	2 297 401	2 297 346	2 297 629	2 297 481	2 298 368	2 298 374	2 298 333	2 298 303	2 299 387	2 299 301	2 299 340	2 299 570	2 300 317	2 300 409	2 300 337	2 300 348	2 301 389	2 301 405	2 301 340	2 301 347	2 302 412	2 302 400	2 302 329	2 302 420	2 302 366	2 302 480	2 303 312	2 303 328	2 303 385	2 304 381	2 305 397	2 305 323	2 305 330	2 305 375	2 305 315	2 306 345	2 306 423	2 306 513	2 307 532	2 307 597	2 307 522	2 307 488	2 307 487	2 307 523	2 308 407	2 308 330	2 309 311	2 309 570	2 309 387	2 309 386	2 310 526	2 310 354	2 310 539	2 310 575	2 310 472	2 311 370	2 311 499	2 311 457	2 311 598	2 312 321	2 312 376	2 312 341	2 313 379	2 313 345	2 314 360	2 314 601	2 315 416	2 315 411	2 315 375	2 315 327	2 316 407	2 316 392	2 316 397	2 316 339	2 317 393	2 317 332	2 318 346	2 318 343	2 318 542	2 318 378	2 319 329	2 320 337	2 320 586	2 320 382	2 321 333	2 323 330	2 324 505	2 324 354	2 324 472	2 325 364	2 326 560	2 326 610	2 329 412	2 331 600	2 331 443	2 331 434	2 334 604	2 334 444	2 334 584	2 334 591	2 335 457	2 335 568	2 338 383	2 338 421	2 339 397	2 339 416	2 340 418	2 340 405	2 341 512	2 341 376	2 342 380	2 342 364	2 343 404	2 345 379	2 346 481	2 347 387	2 349 371	2 350 604	2 350 444	2 351 600	2 351 541	2 351 465	2 352 419	2 352 361	2 353 609	2 353 417	2 353 620	2 354 505	2 355 512	2 355 376	2 355 412	2 356 380	2 356 395	2 357 402	2 358 413	2 359 525	2 361 391	2 362 381	2 363 566	2 363 594	2 364 408	2 366 400	2 366 549	2 366 480	2 367 463	2 367 533	2 369 610	2 369 475	2 370 570	2 372 532	2 372 531	2 372 487	2 374 385	2 375 411	2 377 546	2 380 541	2 386 598	2 390 492	2 390 548	2 390 572	2 393 409	2 395 443	2 395 600	2 396 408	2 398 607	2 399 410	2 400 412	2 400 582	2 401 509	2 401 533	2 403 414	2 413 440	2 413 567	2 417 609	2 420 480	2 422 493	2 422 544	2 422 716	2 422 496	2 422 756	2 423 489	2 423 513	2 423 701	2 423 469	2 424 619	2 424 455	2 424 786	2 424 679	2 425 561	2 425 743	2 425 498	2 425 613	2 425 529	2 426 578	2 426 576	2 426 571	2 426 752	2 426 819	2 426 757	2 426 792	2 427 465	2 427 434	2 427 433	2 428 534	2 428 596	2 428 585	2 428 550	2 429 452	2 429 492	2 429 495	2 429 615	2 430 559	2 430 477	2 430 470	2 430 703	2 430 630	2 431 456	2 431 609	2 431 478	2 431 464	2 431 580	2 432 650	2 432 563	2 432 770	2 432 516	2 432 743	2 432 519	2 433 515	2 433 471	2 433 700	2 433 446	2 434 465	2 434 564	2 434 603	2 434 443	2 435 556	2 435 545	2 435 558	2 435 633	2 435 446	2 436 476	2 436 665	2 436 674	2 436 798	2 436 466	2 436 577	2 437 485	2 437 508	2 437 530	2 437 664	2 438 499	2 438 441	2 438 540	2 438 490	2 438 514	2 439 823	2 439 440	2 439 706	2 439 766	2 440 870	2 441 499	2 441 565	2 441 521	2 441 540	2 442 482	2 442 700	2 442 603	2 442 756	2 443 526	2 443 564	2 444 529	2 444 538	2 444 454	2 445 595	2 445 805	2 445 546	2 445 747	2 445 808	2 446 515	2 446 702	2 446 633	2 447 617	2 447 510	2 447 453	2 448 684	2 448 893	2 448 719	2 449 537	2 450 553	2 450 543	2 450 658	2 450 817	2 450 783	2 451 684	2 451 719	2 451 733	2 452 568	2 452 492	2 452 514	2 452 576	2 452 571	2 452 536	2 453 470	2 453 617	2 453 461	2 453 772	2 454 538	2 455 581	2 455 506	2 455 619	2 455 784	2 455 788	2 456 617	2 456 580	2 456 587	2 456 470	2 457 514	2 458 537	2 458 507	2 458 659	2 458 462	2 459 577	2 459 744	2 460 652	2 460 786	2 460 716	2 461 772	2 461 663	2 461 775	2 461 477	2 461 736	2 462 501	2 462 500	2 462 782	2 462 787	2 463 682	2 464 580	2 465 491	2 466 798	2 466 683	2 466 577	2 466 723	2 466 707	2 467 593	2 467 705	2 467 475	2 467 610	2 468 566	2 468 519	2 468 512	2 468 563	2 469 767	2 469 662	2 469 675	2 470 721	2 470 477	2 471 776	2 471 700	2 471 702	2 472 502	2 472 565	2 473 554	2 473 629	2 473 518	2 473 699	2 473 555	2 474 680	2 474 720	2 475 593	2 476 618	2 476 479	2 476 577	2 476 504	2 477 703	2 477 739	2 478 517	2 478 587	2 479 504	2 479 495	2 480 529	2 480 613	2 480 538	2 481 542	2 481 554	2 481 487	2 482 564	2 482 575	2 482 493	2 483 720	2 483 731	2 483 677	2 483 793	2 483 672	2 484 744	2 484 707	2 484 569	2 484 655	2 484 590	2 485 500	2 485 508	2 486 497	2 486 599	2 487 554	2 487 532	2 487 555	2 488 522	2 488 528	2 488 670	2 488 694	2 488 695	2 489 552	2 489 706	2 490 514	2 490 506	2 490 578	2 490 511	2 490 589	2 491 573	2 491 515	2 492 568	2 492 548	2 493 502	2 494 696	2 494 782	2 494 588	2 494 828	2 495 618	2 496 502	2 496 521	2 496 716	2 496 745	2 497 672	2 497 645	2 498 584	2 498 553	2 498 543	2 501 557	2 502 565	2 502 521	2 503 695	2 503 770	2 503 660	2 503 718	2 503 650	2 504 596	2 504 534	2 506 511	2 506 521	2 507 646	2 507 560	2 507 659	2 508 588	2 508 931	2 508 778	2 509 533	2 509 682	2 509 574	2 509 629	2 510 602	2 510 794	2 510 586	2 511 578	2 511 784	2 511 614	2 512 519	2 512 582	2 513 524	2 514 568	2 514 589	2 515 573	2 516 743	2 516 562	2 516 592	2 516 728	2 517 590	2 517 550	2 517 585	2 517 721	2 517 569	2 518 688	2 518 625	2 518 629	2 518 732	2 518 574	2 519 561	2 519 582	2 520 524	2 520 682	2 520 673	2 520 662	2 521 754	2 522 528	2 522 594	2 522 597	2 523 555	2 525 621	2 525 551	2 526 575	2 527 604	2 527 583	2 527 573	2 528 606	2 528 594	2 528 695	2 529 538	2 530 931	2 530 664	2 531 542	2 534 608	2 535 611	2 536 763	2 536 615	2 539 575	2 541 600	2 543 783	2 543 553	2 543 562	2 544 716	2 544 634	2 544 547	2 545 556	2 545 591	2 545 583	2 547 676	2 547 634	2 549 582	2 549 561	2 549 613	2 550 585	2 551 621	2 552 607	2 553 584	2 554 629	2 556 612	2 556 640	2 558 583	2 558 573	2 559 721	2 561 613	2 562 592	2 562 783	2 563 761	2 563 770	2 566 594	2 567 616	2 567 797	2 569 753	2 569 721	2 571 763	2 574 682	2 576 589	2 578 589	2 579 599	2 579 645	2 580 617	2 581 754	2 583 604	2 583 591	2 584 591	2 584 612	2 585 608	2 587 721	2 588 778	2 590 608	2 590 744	2 591 612	2 592 689	2 592 783	2 593 769	2 594 606	2 595 599	2 595 687	2 602 772	2 602 663	2 606 810	2 608 744	2 611 616	2 614 752	2 614 784	2 614 820	2 614 649	2 615 821	2 615 674	2 616 797	2 619 768	2 622 774	2 622 809	2 622 653	2 622 790	2 623 956	2 623 806	2 623 801	2 623 670	2 623 714	2 624 698	2 624 667	2 624 867	2 624 974	2 625 688	2 625 816	2 625 779	2 625 727	2 626 794	2 626 981	2 627 660	2 627 650	2 627 689	2 627 755	2 627 638	2 628 778	2 628 905	2 628 828	2 628 854	2 630 641	2 630 722	2 630 703	2 631 948	2 631 953	2 631 729	2 631 799	2 631 709	2 631 710	2 632 676	2 632 932	2 632 690	2 633 702	2 633 730	2 633 671	2 634 776	2 634 756	2 634 700	2 634 780	2 635 980	2 635 874	2 635 972	2 635 963	2 635 641	2 636 655	2 636 641	2 636 1018	2 636 980	2 637 667	2 637 765	2 637 991	2 637 760	2 637 648	2 637 812	2 638 977	2 638 1004	2 638 1015	2 638 939	2 638 822	2 639 719	2 639 733	2 639 657	2 639 741	2 639 651	2 640 746	2 640 817	2 641 655	2 642 807	2 642 740	2 643 815	2 643 714	2 643 801	2 643 825	2 643 988	2 644 653	2 644 837	2 644 791	2 644 900	2 645 654	2 645 666	2 645 944	2 645 737	2 646 705	2 646 946	2 646 704	2 647 661	2 647 742	2 647 885	2 647 860	2 648 762	2 648 965	2 648 726	2 648 693	2 648 649	2 648 760	2 649 788	2 649 820	2 649 813	2 649 693	2 650 728	2 651 741	2 651 807	2 651 740	2 652 734	2 652 802	2 652 676	2 652 710	2 652 786	2 653 899	2 654 811	2 654 666	2 654 950	2 654 944	2 654 715	2 655 753	2 656 802	2 656 959	2 656 949	2 656 966	2 657 741	2 657 969	2 658 933	2 658 817	2 658 692	2 658 914	2 659 818	2 659 903	2 659 704	2 660 681	2 660 718	2 660 1015	2 661 1006	2 661 910	2 661 748	2 661 742	2 662 767	2 662 869	2 662 673	2 663 794	2 663 942	2 663 735	2 663 809	2 664 684	2 665 798	2 665 674	2 665 698	2 666 672	2 666 677	2 667 757	2 667 800	2 667 668	2 668 821	2 668 698	2 669 986	2 669 895	2 669 726	2 669 985	2 669 999	2 670 695	2 670 694	2 670 718	2 671 748	2 671 896	2 671 746	2 671 730	2 672 793	2 673 697	2 673 869	2 673 688	2 675 701	2 675 916	2 675 829	2 675 826	2 676 780	2 676 795	2 676 802	2 677 811	2 678 750	2 678 712	2 678 1010	2 678 706	2 678 738	2 679 710	2 679 729	2 679 693	2 679 813	2 679 713	2 680 720	2 681 956	2 681 806	2 681 977	2 681 960	2 682 688	2 683 798	2 683 711	2 683 724	2 683 976	2 684 1008	2 685 689	2 685 933	2 685 967	2 685 914	2 685 1004	2 686 776	2 686 780	2 687 737	2 687 808	2 687 913	2 687 882	2 688 697	2 689 728	2 689 933	2 689 755	2 690 751	2 690 742	2 690 708	2 690 932	2 691 779	2 691 727	2 691 758	2 691 921	2 691 815	2 692 914	2 692 789	2 692 850	2 692 896	2 693 764	2 694 758	2 694 714	2 694 699	2 695 718	2 695 810	2 696 782	2 696 856	2 696 903	2 696 828	2 697 971	2 697 816	2 697 1005	2 698 711	2 698 974	2 698 1002	2 699 732	2 699 779	2 699 758	2 700 756	2 701 738	2 701 706	2 702 1006	2 702 730	2 702 708	2 703 739	2 703 997	2 703 841	2 704 837	2 704 717	2 705 774	2 705 804	2 705 981	2 705 946	2 706 766	2 707 771	2 708 742	2 709 966	2 709 864	2 709 923	2 710 734	2 710 729	2 710 786	2 711 976	2 711 1002	2 711 796	2 712 827	2 712 920	2 712 862	2 713 929	2 713 902	2 713 799	2 714 758	2 715 950	2 716 745	2 716 795	2 717 903	2 717 883	2 717 890	2 717 934	2 718 956	2 719 848	2 720 731	2 720 759	2 721 753	2 722 972	2 722 901	2 723 771	2 723 814	2 724 976	2 724 814	2 725 933	2 725 783	2 726 760	2 726 989	2 726 965	2 727 970	2 730 1006	2 734 966	2 735 942	2 735 775	2 736 875	2 736 775	2 736 739	2 737 955	2 737 944	2 738 829	2 739 875	2 745 768	2 745 754	2 746 789	2 747 870	2 748 940	2 750 823	2 751 932	2 751 860	2 751 927	2 755 1004	2 757 765	2 761 770	2 761 810	2 762 820	2 762 765	2 763 800	2 763 819	2 764 902	2 764 965	2 765 792	2 767 869	2 767 826	2 769 981	2 771 814	2 771 1018	2 773 980	2 773 943	2 773 1018	2 774 981	2 775 875	2 777 905	2 777 824	2 777 892	2 778 905	2 781 822	2 781 1020	2 781 939	2 784 788	2 785 894	2 785 888	2 785 856	2 787 818	2 788 813	2 789 817	2 790 837	2 791 859	2 792 820	2 796 871	2 799 948	2 799 929	2 800 821	2 800 819	2 801 988	2 801 911	2 803 968	2 803 920	2 804 837	2 806 956	2 809 942	2 812 1014	2 814 1018	2 816 835	2 822 1021	2 822 879	2 822 1012	2 822 939	2 823 863	2 823 870	2 823 827	2 824 854	2 824 1009	2 825 878	2 825 921	2 825 834	2 826 915	2 826 987	2 827 863	2 827 920	2 828 961	2 828 854	2 828 856	2 829 862	2 829 1010	2 829 833	2 829 916	2 830 895	2 830 986	2 831 916	2 831 930	2 831 915	2 832 840	2 832 962	2 832 847	2 833 916	2 834 988	2 834 846	2 834 1019	2 834 878	2 835 1005	2 835 928	2 835 1013	2 835 938	2 835 970	2 836 983	2 836 871	2 837 946	2 837 890	2 838 976	2 838 861	2 838 996	2 838 943	2 838 978	2 839 902	2 839 895	2 840 878	2 840 941	2 841 951	2 841 875	2 841 990	2 841 912	2 841 995	2 842 861	2 842 983	2 842 975	2 843 912	2 843 880	2 843 884	2 844 849	2 844 891	2 845 948	2 845 929	2 845 926	2 846 1019	2 846 878	2 847 857	2 847 855	2 847 922	2 848 893	2 848 969	2 848 909	2 849 877	2 849 879	2 849 1021	2 850 914	2 850 947	2 850 889	2 850 957	2 850 1017	2 851 1000	2 851 963	2 851 998	2 851 979	2 851 904	2 852 923	2 852 924	2 852 953	2 853 952	2 853 968	2 854 888	2 855 915	2 855 922	2 855 936	2 856 903	2 856 961	2 856 894	2 856 934	2 857 1016	2 857 971	2 857 1005	2 857 936	2 857 938	2 858 1001	2 858 985	2 858 867	2 858 937	2 859 899	2 859 880	2 859 884	2 860 927	2 860 1007	2 860 954	2 860 887	2 861 871	2 861 983	2 861 975	2 863 870	2 863 968	2 863 882	2 864 959	2 864 865	2 864 876	2 864 923	2 865 954	2 865 982	2 866 900	2 866 884	2 866 994	2 867 1014	2 867 871	2 867 974	2 868 889	2 868 1011	2 868 886	2 869 1016	2 871 937	2 871 983	2 872 967	2 872 914	2 872 1020	2 872 1017	2 872 881	2 873 881	2 873 889	2 874 943	2 874 978	2 874 906	2 874 963	2 875 899	2 875 995	2 876 924	2 876 923	2 877 992	2 877 935	2 879 960	2 879 977	2 880 899	2 880 995	2 881 891	2 882 952	2 883 894	2 883 925	2 884 908	2 884 994	2 885 897	2 885 973	2 885 887	2 885 910	2 886 910	2 886 957	2 886 896	2 886 984	2 887 982	2 887 954	2 887 918	2 889 957	2 890 900	2 890 925	2 891 1012	2 892 917	2 892 893	2 892 905	2 892 1009	2 892 945	2 893 945	2 893 909	2 894 934	2 895 989	2 896 957	2 896 940	2 897 973	2 898 964	2 898 904	2 898 951	2 898 919	2 899 942	2 900 925	2 901 997	2 901 958	2 901 904	2 901 990	2 902 926	2 903 934	2 904 979	2 905 931	2 906 1003	2 906 998	2 906 1000	2 907 975	2 907 1003	2 908 994	2 910 940	2 910 984	2 911 988	2 911 992	2 911 960	2 911 935	2 912 995	2 912 951	2 912 919	2 913 955	2 913 993	2 913 952	2 914 1017	2 915 916	2 915 987	2 915 930	2 917 1008	2 917 931	2 918 982	2 919 964	2 921 941	2 921 1013	2 926 929	2 927 1007	2 927 949	2 928 938	2 932 949	2 935 1019	2 936 987	2 939 967	2 939 1004	2 941 962	2 944 950	2 944 955	2 947 1017	2 948 953	2 949 959	2 952 993	2 958 972	2 960 992	2 962 1013	2 963 1000	2 965 989	2 971 1016	2 973 1011	2 973 984	2 974 1002	2 975 996	2 978 1003	2 980 1018	2 985 986	2 985 999	2 986 1001	2 987 1016	2 991 999	2 996 1003	2 998 1000	2 999 1014	2 1012 1021	2 1012 1020	
CELL_TYPES 1632
3	3	3	3	3	3	3	3	3	3	3	3	3	3	3	3	3	3	3	3	3	3	3	3	3	3	3	3	3	3	3	3	3	3	3	3	3	3	3	3	3	3	3	3	3	3	3	3	3	3	3	3	3	3	3	3	3	3	3	3	3	3	3	3	3	3	3	3	3	3	3	3	3	3	3	3	3	3	3	3	3	3	3	3	3	3	3	3	3	3	3	3	3	3	3	3	3	3	3	3	3	3	3	3	3	3	3	3	3	3	3	3	3	3	3	3	3	3	3	3	3	3	3	3	3	3	3	3	3	3	3	3	3	3	3	3	3	3	3	3	3	3	3	3	3	3	3	3	3	3	3	3	3	3	3	3	3	3	3	3	3	3	3	3	3	3	3	3	3	3	3	3	3	3	3	3	3	3	3	3	3	3	3	3	3	3	3	3	3	3	3	3	3	3	3	3	3	3	3	3	3	3	3	3	3	3	3	3	3	3	3	3	3	3	3	3	3	3	3	3	3	3	3	3	3	3	3	3	3	3	3	3	3	3	3	3	3	3	3	3	3	3	3	3	3	3	3	3	3	3	3	3	3	3	3	3	3	3	3	3	3	3	3	3	3	3	3	3	3	3	3	3	3	3	3	3	3	3	3	3	3	3	3	3	3	3	3	3	3	3	3	3	3	3	3	3	3	3	3	3	3	3	3	3	3	3	3	3	3	3	3	3	3	3	3	3	3	3	3	3	3	3	3	3	3	3	3	3	3	3	3	3	3	3	3	3	3	3	3	3	3	3	3	3	3	3	3	3	3	3	3	3	3	3	3	3	3	3	3	3	3	3	3	3	3	3	3	3	3	3	3	3	3	3	3	3	3	3	3	3	3	3	3	3	3	3	3	3	3	3	3	3	3	3	3	3	3	3	3	3	3	3	3	3	3	3	3	3	3	3	3	3	3	3	3	3	3	3	3	3	3	3	3	3	3	3	3	3	3	3	3	3	3	3	3	3	3	3	3	3	3	3	3	3	3	3	3	3	3	3	3	3	3	3	3	3	3	3	3	3	3	3	3	3	3	3	3	3	3	3	3	3	3	3	3	3	3	3	3	3	3	3	3	3	3	3	3	3	3	3	3	3	3	3	3	3	3	3	3	3	3	3	3	3	3	3	3	3	3	3	3	3	3	3	3	3	3	3	3	3	3	3	3	3	3	3	3	3	3	3	3	3	3	3	3	3	3	3	3	3	3	3	3	3	3	3	3	3	3	3	3	3	3	3	3	3	3	3	3	3	3	3	3	3	3	3	3	3	3	3	3	3	3	3	3	3	3	3	3	3	3	3	3	3	3	3	3	3	3	3	3	3	3	3	3	3	3	3	3	3	3	3	3	3	3	3	3	3	3	3	3	3	3	3	3	3	3	3	3	3	3	3	3	3	3	3	3	3	3	3	3	3	3	3	3	3	3	3	3	3	3	3	3	3	3	3	3	3	3	3	3	3	3	3	3	3	3	3	3	3	3	3	3	3	3	3	3	3	3	3	3	3	3	3	3	3	3	3	3	3	3	3	3	3	3	3	3	3	3	3	3	3	3	3	3	3	3	3	3	3	3	3	3	3	3	3	3	3	3	3	3	3	3	3	3	3	3	3	3	3	3	3	3	3	3	3	3	3	3	3	3	3	3	3	3	3	3	3	3	3	3	3	3	3	3	3	3	3	3	3	3	3	3	3	3	3	3	3	3	3	3	3	3	3	3	3	3	3	3	3	3	3	3	3	3	3	3	3	3	3	3	3	3	3	3	3	3	3	3	3	3	3	3	3	3	3	3	3	3	3	3	3	3	3	3	3	3	3	3	3	3	3	3	3	3	3	3	3	3	3	3	3	3	3	3	3	3	3	3	3	3	3	3	3	3	3	3	3	3	3	3	3	3	3	3	3	3	3	3	3	3	3	3	3	3	3	3	3	3	3	3	3	3	3	3	3	3	3	3	3	3	3	3	3	3	3	3	3	3	3	3	3	3	3	3	3	3	3	3	3	3	3	3	3	3	3	3	3	3	3	3	3	3	3	3	3	3	3	3	3	3	3	3	3	3	3	3	3	3	3	3	3	3	3	3	3	3	3	3	3	3	3	3	3	3	3	3	3	3	3	3	3	3	3	3	3	3	3	3	3	3	3	3	3	3	3	3	3	3	3	3	3	3	3	3	3	3	3	3	3	3	3	3	3	3	3	3	3	3	3	3	3	3	3	3	3	3	3	3	3	3	3	3	3	3	3	3	3	3	3	3	3	3	3	3	3	3	3	3	3	3	3	3	3	3	3	3	3	3	3	3	3	3	3	3	3	3	3	3	3	3	3	3	3	3	3	3	3	3	3	3	3	3	3	3	3	3	3	3	3	3	3	3	3	3	3	3	3	3	3	3	3	3	3	3	3	3	3	3	3	3	3	3	3	3	3	3	3	3	3	3	3	3	3	3	3	3	3	3	3	3	3	3	3	3	3	3	3	3	3	3	3	3	3	3	3	3	3	3	3	3	3	3	3	3	3	3	3	3	3	3	3	3	3	3	3	3	3	3	3	3	3	3	3	3	3	3	3	3	3	3	3	3	3	3	3	3	3	3	3	3	3	3	3	3	3	3	3	3	3	3	3	3	3	3	3	3	3	3	3	3	3	3	3	3	3	3	3	3	3	3	3	3	3	3	3	3	3	3	3	3	3	3	3	3	3	3	3	3	3	3	3	3	3	3	3	3	3	3	3	3	3	3	3	3	3	3	3	3	3	3	3	3	3	3	3	3	3	3	3	3	3	3	3	3	3	3	3	3	3	3	3	3	3	3	3	3	3	3	3	3	3	3	3	3	3	3	3	3	3	3	3	3	3	3	3	3	3	3	3	3	3	3	3	3	3	3	3	3	3	3	3	3	3	3	3	3	3	3	3	3	3	3	3	3	3	3	3	3	3	3	3	3	3	3	3	3	3	3	3	3	3	3	3	3	3	3	3	3	3	3	3	3	3	3	3	3	3	3	3	3	3	3	3	3	3	3	3	3	3	3	3	3	3	3	3	3	3	3	3	3	3	3	3	3	3	3	3	3	3	3	3	3	3	3	3	3	3	3	3	3	3	3	3	3	3	3	3	3	3	3	3	3	3	3	3	3	3	3	3	3	3	3	3	3	3	3	3	3	3	3	3	3	3	3	3	3	3	3	3	3	3	3	3	3	3	3	3	3	3	3	3	3	3	3	3	3	3	3	3	3	3	3	3	3	3	3	3	3	3	3	3	3	3	3	3	3	3	3	3	3	3	3	3	3	3	3	3	3	3	3	3	3	3	3	3	3	3	3	3	3	3	3	3	3	3	3	3	3	3	3	3	3	3	3	3	3	3	3	3	3	3	3	3	3	3	3	3	3	3	3	3	3	3	3	3	3	3	3	3	3	3	3	3	3	3	3	3	3	3	3	3	3	3	3	3	3	3	3	3	3	3	3	3	3	3	3	3	3	3	3	3	3	3	3	3	3	3	3	3	3	3	3	3	3	3	3	3	3	3	3	3	3	3	3	3	3	3	3	3	3	3	3	3	3	3	3	3	3	3	3	3	3	3	3	3	3	3	3	3	3	3	3	3	3	3	3	3	3	3	3	3	3	3	3	3	3	3	3	3	3	3	3	3	3	3	3	3	3	3	3	3	3	3	3	3	3	3	3	3	3	3	
POINT_DATA 1022
SCALARS UDOT.x float
LOOKUP_TABLE default
0.000000	0.000000	0.000000	0.000000	0.000000	0.000000	0.000000	0.000000	0.000000	0.000000	0.000000	0.000000	0.000000	0.000000	0.000000	0.000000	0.000000	0.000000	0.000000	0.000000	0.000000	0.000000	0.000000	0.000000	0.000000	0.000000	0.000000	0.000000	0.000000	0.000000	0.000000	0.000000	0.000000	0.000000	0.000000	0.000000	0.000000	0.000000	0.000000	0.000000	0.000000	0.000000	0.000000	0.000000	0.000000	0.000000	0.000000	0.000000	0.000000	0.000000	0.000000	0.000000	0.000000	0.000000	0.000000	0.000000	0.000000	0.000000	0.000000	0.000000	0.000000	0.000000	0.000000	0.000000	0.000000	0.000000	0.000000	0.000000	0.000000	0.000000	0.000000	0.000000	0.000000	0.000000	0.000000	0.000000	0.000000	0.000000	0.000000	0.000000	0.000000	0.000000	0.000000	0.000000	0.000000	0.000000	0.000000	0.000000	0.000000	0.000000	0.000000	0.000000	0.000000	0.000000	0.000000	0.000000	0.000000	0.000000	0.000000	0.000000	0.000000	0.000000	0.000000	0.000000	0.000000	0.000000	0.000000	0.000000	0.000000	0.000000	0.000000	0.000000	0.000000	0.000000	0.000000	0.000000	0.000000	0.000000	0.000000	0.000000	0.000000	0.000000	0.000000	0.000000	0.000000	0.000000	0.000000	0.000000	0.000000	0.000000	0.000000	0.000000	0.000000	0.000000	0.000000	0.000000	0.000000	0.000000	0.000000	0.000000	0.000000	0.000000	0.000000	0.000000	0.000000	0.000000	0.000000	0.000000	0.000000	0.000000	0.000000	0.000000	0.000000	0.000000	0.000000	0.000000	0.000000	0.000000	0.000000	0.000000	0.000000	0.000000	0.000000	0.000000	0.000000	0.000000	0.000000	0.000000	0.000000	0.000000	0.000000	0.000000	0.000000	0.000000	0.000000	0.000000	0.000000	0.000000	0.000000	0.000000	0.000000	0.000000	0.000000	0.000000	0.000000	0.000000	0.000000	0.000000	0.000000	0.000000	0.000000	0.000000	0.000000	0.000000	0.000000	0.000000	0.000000	0.000000	0.000000	0.000000	0.000000	0.000000	0.000000	0.000000	0.000000	0.000000	0.000000	0.000000	0.000000	0.000000	0.000000	0.000000	0.000000	0.000000	0.000000	0.000000	0.000000	0.000000	0.000000	0.000000	0.000000	0.000000	0.000001	-0.000005	0.000001	0.000000	0.000000	0.000006	-0.000001	-0.000001	0.000000	-0.000002	-0.000005	0.000002	-0.000002	-0.000001	0.000004	0.000000	0.000001	0.000000	-0.000002	0.000001	0.000000	-0.000000	-0.000000	0.000001	-0.000003	0.000003	-0.000003	0.000002	0.000001	0.000000	-0.000002	-0.000001	-0.000001	0.000000	-0.000001	-0.000002	-0.000003	-0.000000	-0.000003	-0.000001	-0.000002	0.000001	-0.000001	0.000001	-0.000000	-0.000001	0.000001	0.000001	-0.000000	0.000000	-0.000001	-0.000000	0.000001	-0.000001	0.000001	-0.000001	0.000001	0.000002	0.000001	0.000000	0.000003	0.000001	-0.000001	-0.000000	-0.000000	-0.000001	0.000003	-0.000001	0.000000	-0.000000	-0.000001	-0.000000	-0.000004	-0.000001	-0.000001	0.000005	-0.000000	-0.000000	-0.000003	0.000000	0.000003	-0.000003	-0.000001	0.000001	-0.000000	0.000001	0.000001	-0.000000	0.000001	-0.000001	0.000001	-0.000002	0.000000	-0.000000	0.000000	0.000001	-0.000001	0.000000	0.000004	0.000000	0.000003	-0.000001	-0.000002	0.000004	0.000001	-0.000001	-0.000001	-0.000006	-0.000003	-0.000000	-0.000001	0.000003	0.000001	-0.000000	0.000001	0.000000	0.000002	-0.000001	0.000002	0.000001	0.000004	0.000002	-0.000002	-0.000003	0.000003	0.000002	-0.000003	0.000001	0.000004	0.000001	0.000000	0.000003	-0.000002	-0.000006	-0.000004	0.000001	-0.000002	-0.000003	0.000001	-0.000002	-0.000003	0.000001	0.000006	0.000000	-0.000001	0.000000	-0.000001	0.000000	-0.000000	-0.000003	0.000001	0.000002	0.000000	-0.000002	-0.000000	-0.000000	0.000004	0.000000	-0.000000	-0.000003	-0.000004	0.000001	-0.000000	0.000001	0.000000	-0.000001	-0.000002	0.000001	0.000001	-0.000003	0.000001	0.000000	-0.000003	-0.000001	-0.000009	0.000002	-0.000001	0.000001	-0.000004	0.000004	0.000001	-0.000001	0.000003	-0.000001	-0.000001	0.000000	-0.000000	0.000000	0.000002	-0.000001	0.000002	-0.000004	-0.000000	0.000003	-0.000001	0.000002	0.000002	-0.000001	0.000002	-0.000000	-0.000000	-0.000000	0.000001	0.000001	0.000001	0.000001	-0.000000	0.000004	0.000001	-0.000001	0.000002	0.000001	-0.000001	-0.000000	-0.000002	-0.000001	0.000001	-0.000003	-0.000002	0.000001	-0.000002	-0.000000	0.000000	0.000000	0.000001	-0.000002	-0.000001	0.000001	0.000001	0.000001	0.000001	0.000000	0.000004	0.000000	0.000000	0.000002	-0.000004	0.000002	-0.000001	-0.000000	0.000000	0.000001	0.000000	0.000002	-0.000001	0.000001	0.000001	-0.000003	0.000000	0.000001	0.000000	-0.000002	-0.000005	0.000002	-0.000002	0.000000	0.000001	-0.000006	-0.000000	0.000002	0.000000	-0.000005	-0.000001	-0.000000	-0.000002	-0.000001	-0.000002	-0.000000	0.000001	0.000000	0.000001	0.000000	0.000004	-0.000002	0.000002	-0.000003	0.000000	0.000001	-0.000001	0.000000	0.000000	0.000000	-0.000000	-0.000001	-0.000000	-0.000001	0.000001	-0.000000	0.000000	-0.000000	-0.000000	0.000003	0.000001	-0.000001	-0.000000	0.000001	-0.000002	0.000003	0.000001	-0.000000	0.000002	0.000002	0.000004	-0.000003	0.000000	0.000000	0.000001	-0.000001	-0.000003	0.000002	-0.000001	-0.000000	-0.000001	0.000002	0.000000	-0.000001	0.000002	-0.000000	0.000003	-0.000000	0.000001	-0.000000	-0.000000	-0.000003	0.000003	-0.000001	-0.000006	0.000001	-0.000001	-0.000003	0.000002	-0.000001	0.000003	0.000001	-0.000002	0.000000	-0.000000	0.000003	0.000000	0.000006	0.000000	0.000004	-0.000000	0.000001	0.000003	0.000002	0.000000	0.000001	0.000001	0.000001	0.000000	-0.000001	-0.000003	0.000000	-0.000001	-0.000002	0.000001	-0.000005	-0.000002	0.000000	0.000001	-0.000000	0.000000	-0.000002	-0.000002	-0.000001	0.000000	0.000001	-0.000003	-0.000001	-0.000001	0.000003	0.000002	-0.000006	0.000002	-0.000001	-0.000000	-0.000002	-0.000001	-0.000001	0.000002	-0.000001	-0.000002	0.000003	-0.000000	-0.000002	-0.000002	-0.000000	-0.000003	-0.000002	-0.000001	0.000002	-0.000001	0.000004	-0.000003	-0.000000	-0.000002	-0.000000	0.000001	-0.000002	0.000004	0.000006	0.000004	-0.000003	0.000001	-0.000000	0.000006	0.000000	0.000001	0.000003	-0.000002	0.000001	0.000001	0.000006	0.000003	-0.000000	-0.000001	0.000004	-0.000001	0.000006	-0.000002	0.000004	0.000002	-0.000006	-0.000005	-0.000000	-0.000001	-0.000003	0.000000	0.000001	-0.000001	0.000001	-0.000003	0.000001	0.000001	0.000001	-0.000001	-0.000004	0.000000	0.000001	-0.000006	0.000001	-0.000003	0.000001	-0.000003	-0.000000	0.000005	0.000003	0.000003	0.000001	-0.000001	-0.000001	0.000001	-0.000001	-0.000001	-0.000006	-0.000003	-0.000000	-0.000006	0.000001	-0.000002	0.000001	-0.000001	0.000001	0.000003	-0.000006	-0.000006	-0.000003	-0.000001	-0.000004	0.000001	-0.000002	-0.000001	0.000000	0.000005	-0.000003	0.000004	-0.000001	0.000000	0.000002	0.000001	0.000005	-0.000001	0.000001	-0.000002	-0.000000	-0.000000	0.000006	-0.000001	0.000006	-0.000001	0.000001	0.000006	-0.000001	-0.000000	0.000001	0.000003	-0.000001	-0.000003	-0.000002	0.000003	0.000006	0.000003	-0.000002	0.000003	0.000000	-0.000003	-0.000000	0.000001	0.000002	-0.000006	-0.000000	-0.000000	0.000003	-0.000000	-0.000005	-0.000000	0.000001	-0.000000	0.000006	-0.000001	0.000001	0.000002	0.000001	-0.000000	0.000002	0.000000	-0.000000	-0.000004	-0.000000	-0.000002	-0.000000	-0.000000	0.000000	-0.000001	0.000001	0.000003	0.000000	-0.000001	0.000001	-0.000001	0.000005	-0.000004	0.000002	-0.000001	-0.000003	0.000002	0.000001	0.000005	0.000005	-0.000001	0.000003	0.000002	-0.000002	0.000001	-0.000001	0.000002	-0.000003	-0.000000	-0.000003	-0.000002	-0.000001	0.000001	0.000003	0.000000	0.000000	-0.000000	-0.000000	0.000000	0.000002	0.000001	-0.000001	0.000001	-0.000000	0.000003	0.000003	-0.000002	0.000005	0.000006	0.000002	-0.000001	0.000001	0.000000	-0.000000	0.000002	-0.000001	-0.000005	0.000005	0.000000	-0.000006	-0.000001	0.000000	0.000005	-0.000001	-0.000001	-0.000001	0.000000	0.000002	-0.000000	0.000006	-0.000001	-0.000000	0.000006	0.000000	-0.000006	-0.000001	0.000006	-0.000005	0.000006	-0.000006	-0.000006	-0.000002	0.000002	-0.000003	0.000001	0.000001	0.000005	0.000006	0.000002	0.000001	0.000006	0.000006	-0.000006	0.000006	0.000003	-0.000006	-0.000001	-0.000003	0.000002	0.000005	0.000001	-0.000006	0.000002	-0.000006	0.000006	-0.000006	0.000006	0.000003	-0.000001	0.000006	-0.000005	-0.000000	0.000000	0.000003	0.000005	0.000006	-0.000003	-0.000006	0.000002	0.000003	-0.000005	-0.000001	0.000006	0.000002	0.000000	-0.000005	0.000003	0.000000	0.000002	-0.000006	0.000001	-0.000001	0.000005	-0.000003	0.000001	0.000000	-0.000005	0.000001	0.000003	-0.000001	0.000002	-0.000003	0.000004	0.000006	0.000001	-0.000001	0.000006	0.000002	0.000006	0.000005	0.000000	0.000006	0.000006	0.000006	0.000006	0.000003	0.000003	-0.000002	0.000000	0.000002	0.000002	0.000002	0.000000	-0.000005	-0.000004	0.000006	0.000006	0.000006	-0.000000	-0.000003	0.000001	0.000001	0.000000	0.000005	0.000003	-0.000002	-0.000003	0.000004	-0.000004	0.000001	-0.000001	-0.000001	0.000004	-0.000000	-0.000004	0.000003	-0.000006	-0.000000	-0.000002	-0.000005	-0.000003	0.000005	-0.000005	0.000003	0.000000	0.000001	0.000005	0.000001	-0.000005	0.000002	0.000001	0.000000	0.000001	-0.000004	0.000001	0.000000	0.000006	0.000000	0.000005	0.000006	-0.000003	0.000006	0.000006	-0.000000	0.000000	-0.000000	-0.000002	-0.000001	-0.000003	-0.000006	0.000006	-0.000003	0.000006	0.000003	0.000004	0.000000	0.000002	0.000005	0.000003	0.000002	-0.000000	0.000006	0.000001	0.000006	0.000004	-0.000002	0.000003	0.000001	0.000001	-0.000001	-0.000001	0.000005	0.000005	0.000005	0.000005	0.000007	0.000006	0.000003	0.000006	0.000003	0.000006	0.000009	-0.000000	-0.000006	0.000000	-0.000000	0.000008	0.000005	0.000001	-0.000002	-0.000002	-0.000005	0.000003	-0.000001	-0.000006	-0.000001	0.000005	-0.000002	-0.000003	-0.000006	
SCALARS UDOT.y float
LOOKUP_TABLE default
0.000000	0.000000	0.000000	0.000000	0.000000	0.000000	0.000000	0.000000	0.000000	0.000000	0.000000	0.000000	0.000000	0.000000	0.000000	0.000000	0.000000	0.000000	0.000000	0.000000	0.000000	0.000000	0.000000	0.000000	0.000000	0.000000	0.000000	0.000000	0.000000	0.000000	0.000000	0.000000	0.000000	0.000000	0.000000	0.000000	0.000000	0.000000	0.000000	0.000000	0.000000	0.000000	0.000000	0.000000	0.000000	0.000000	0.000000	0.000000	0.000000	0.000000	0.000000	0.000000	0.000000	0.000000	0.000000	0.000000	0.000000	0.000000	0.000000	0.000000	0.000000	0.000000	0.000000	0.000000	0.000000	0.000000	0.000000	0.000000	0.000000	0.000000	0.000000	0.000000	0.000000	0.000000	0.000000	0.000000	0.000000	0.000000	0.000000	0.000000	0.000000	0.000000	0.000000	0.000000	0.000000	0.000000	0.000000	0.000000	0.000000	0.000000	0.000000	0.000000	0.000000	0.000000	0.000000	0.000000	0.000000	0.000000	0.000000	0.000000	0.000000	0.000000	0.000000	0.000000	0.000000	0.000000	0.000000	0.000000	0.000000	0.000000	0.000000	0.000000	0.000000	0.000000	0.000000	0.000000	0.000000	0.000000	0.000000	0.000000	0.000000	0.000000	0.000000	0.000000	0.000000	0.000000	0.000000	0.000000	0.000000	0.000000	0.000000	0.000000	0.000000	0.000000	0.000000	0.000000	0.000000	0.000000	0.000000	0.000000	0.000000	0.000000	0.000000	0.000000	0.000000	0.000000	0.000000	0.000000	0.000000	0.000000	0.000000	0.000000	0.000000	0.000000	0.000000	0.000000	0.000000	0.000000	0.000000	0.000000	0.000000	0.000000	0.000000	0.000000	0.000000	0.000000	0.000000	0.000000	0.000000	0.000000	0.000000	0.000000	0.000000	0.000000	0.000000	0.000000	0.000000	0.000000	0.000000	0.000000	0.000000	0.000000	0.000000	0.000000	0.000000	0.000000	0.000000	0.000000	0.000000	0.000000	0.000000	0.000000	0.000000	0.000000	0.000000	0.000000	0.000000	0.000000	0.000000	0.000000	0.000000	0.000000	0.000000	0.000000	0.000000	0.000000	0.000000	0.000000	0.000000	0.000000	0.000000	0.000000	0.000000	0.000000	0.000000	0.000000	0.000000	0.000000	0.000000	0.000000	0.000000	0.000000	0.000000	-0.000003	0.000001	0.000000	-0.000002	0.000001	-0.000000	0.000001	-0.000001	0.000001	0.000000	-0.000000	0.000003	-0.000003	-0.000002	-0.000000	0.000001	0.000000	-0.000002	-0.000003	-0.000001	-0.000001	-0.000000	-0.000001	0.000002	0.000000	-0.000000	0.000003	-0.000001	-0.000000	-0.000000	-0.000002	0.000002	-0.000001	0.000002	-0.000000	-0.000000	-0.000001	-0.000000	-0.000001	0.000001	-0.000000	0.000001	0.000003	0.000002	-0.000000	0.000000	-0.000001	0.000000	0.000002	0.000001	-0.000001	-0.000002	-0.000000	-0.000002	-0.000001	0.000001	0.000001	0.000001	0.000001	-0.000001	0.000000	-0.000000	0.000000	0.000001	0.000000	0.000003	-0.000001	0.000000	0.000001	0.000000	-0.000004	-0.000002	-0.000000	-0.000002	0.000004	0.000000	0.000000	0.000004	0.000001	-0.000001	-0.000001	0.000001	0.000001	0.000003	-0.000001	0.000001	-0.000002	-0.000001	0.000003	-0.000000	0.000001	-0.000000	0.000000	-0.000000	0.000001	0.000001	-0.000000	-0.000000	-0.000000	0.000002	-0.000001	-0.000000	0.000004	-0.000005	-0.000005	-0.000000	-0.000001	-0.000001	-0.000000	0.000000	0.000001	-0.000003	0.000001	-0.000000	-0.000000	-0.000000	0.000004	-0.000001	-0.000003	0.000002	-0.000001	-0.000000	0.000005	0.000000	0.000002	0.000001	0.000003	0.000000	0.000000	-0.000001	0.000002	-0.000002	-0.000002	-0.000002	0.000002	-0.000002	-0.000001	0.000002	0.000001	0.000002	0.000001	-0.000000	-0.000000	0.000001	0.000001	0.000002	0.000003	-0.000001	0.000001	0.000002	-0.000002	-0.000001	-0.000003	-0.000001	0.000001	0.000002	0.000002	0.000001	-0.000003	0.000001	-0.000002	-0.000000	-0.000002	0.000001	0.000004	0.000002	-0.000001	-0.000000	-0.000001	-0.000002	0.000005	0.000000	0.000002	-0.000002	0.000002	0.000001	0.000000	0.000003	0.000002	-0.000001	0.000001	0.000000	0.000001	0.000000	-0.000000	-0.000001	0.000005	0.000002	0.000001	-0.000000	-0.000000	0.000003	0.000002	0.000003	0.000000	-0.000003	0.000001	0.000003	-0.000001	0.000001	0.000005	0.000004	-0.000003	0.000001	-0.000002	-0.000002	-0.000001	0.000000	0.000001	-0.000002	-0.000000	0.000001	0.000000	-0.000002	0.000000	0.000000	0.000000	-0.000001	-0.000000	0.000001	0.000001	-0.000000	0.000001	0.000002	0.000002	0.000003	0.000001	-0.000002	0.000005	0.000003	0.000003	-0.000001	0.000001	-0.000000	0.000003	-0.000003	-0.000006	-0.000002	-0.000002	-0.000001	-0.000001	0.000003	0.000002	-0.000006	0.000001	-0.000001	0.000000	0.000000	0.000001	-0.000000	0.000002	0.000001	0.000004	-0.000002	-0.000000	0.000000	-0.000006	0.000001	-0.000000	-0.000002	-0.000002	0.000002	0.000004	0.000003	-0.000001	0.000001	-0.000000	0.000000	0.000002	-0.000003	0.000001	-0.000002	-0.000003	-0.000001	0.000004	0.000001	0.000003	0.000002	-0.000000	0.000001	-0.000000	-0.000003	0.000001	0.000002	-0.000003	0.000004	-0.000001	0.000001	0.000001	-0.000000	-0.000006	0.000001	0.000000	-0.000002	0.000003	0.000000	-0.000000	-0.000005	0.000000	-0.000002	-0.000002	-0.000013	0.000003	-0.000002	0.000002	0.000002	-0.000002	-0.000004	-0.000001	0.000001	-0.000003	0.000000	-0.000004	-0.000002	-0.000002	0.000001	0.000001	0.000000	0.000000	0.000000	0.000001	-0.000000	-0.000002	-0.000006	-0.000001	0.000003	-0.000001	0.000001	0.000001	-0.000000	0.000002	0.000001	0.000003	-0.000003	-0.000001	0.000001	0.000005	-0.000002	0.000001	0.000001	0.000002	-0.000002	-0.000001	0.000001	-0.000002	0.000001	0.000001	0.000002	0.000002	-0.000002	0.000000	0.000001	0.000001	0.000000	-0.000005	0.000002	-0.000004	0.000001	0.000002	0.000004	-0.000001	0.000002	0.000000	0.000006	0.000002	0.000004	0.000002	0.000001	-0.000001	-0.000003	-0.000000	0.000001	-0.000000	-0.000003	0.000004	0.000002	-0.000002	-0.000001	-0.000002	0.000006	0.000001	-0.000002	0.000003	0.000004	-0.000001	0.000001	-0.000004	0.000001	0.000004	0.000000	-0.000001	-0.000001	0.000003	-0.000005	0.000001	-0.000003	0.000001	0.000003	0.000003	0.000002	-0.000001	-0.000003	0.000004	0.000001	-0.000000	-0.000000	-0.000001	0.000001	-0.000003	-0.000000	0.000003	0.000001	0.000003	0.000002	-0.000001	-0.000001	0.000001	0.000000	-0.000002	-0.000000	-0.000004	0.000002	0.000003	0.000001	-0.000000	0.000001	-0.000000	-0.000001	-0.000001	0.000001	0.000002	0.000003	0.000003	0.000001	-0.000006	-0.000000	-0.000005	-0.000002	0.000002	-0.000002	-0.000000	0.000004	-0.000005	0.000001	-0.000001	0.000003	-0.000003	-0.000001	0.000000	-0.000001	-0.000000	0.000000	0.000001	0.000000	0.000001	-0.000002	-0.000002	0.000000	-0.000003	-0.000002	-0.000003	0.000005	-0.000001	0.000002	-0.000006	0.000001	-0.000001	0.000001	0.000003	0.000000	0.000001	-0.000002	0.000000	0.000001	-0.000001	0.000003	0.000002	0.000000	0.000002	0.000001	-0.000002	-0.000000	-0.000000	-0.000000	-0.000001	0.000003	-0.000004	0.000000	-0.000004	-0.000001	0.000005	-0.000001	0.000003	0.000000	-0.000003	-0.000001	0.000006	0.000000	-0.000000	0.000002	-0.000008	-0.000006	0.000002	0.000002	0.000003	-0.000001	-0.000001	0.000000	0.000004	0.000000	0.000002	0.000003	-0.000004	0.000003	0.000001	-0.000002	-0.000002	-0.000000	-0.000006	0.000002	0.000000	0.000001	-0.000002	-0.000001	-0.000003	0.000002	-0.000000	0.000001	0.000001	0.000004	0.000000	-0.000002	-0.000001	-0.000001	-0.000000	0.000005	0.000000	0.000000	-0.000001	-0.000001	0.000001	-0.000000	-0.000001	-0.000000	-0.000001	-0.000001	0.000001	-0.000003	-0.000001	-0.000002	0.000004	0.000000	0.000001	-0.000000	0.000001	0.000006	0.000003	-0.000001	-0.000000	-0.000001	0.000001	0.000001	-0.000002	0.000004	0.000003	0.000001	-0.000001	-0.000000	-0.000001	-0.000002	-0.000003	-0.000001	-0.000002	0.000005	-0.000003	-0.000004	0.000000	-0.000001	-0.000001	-0.000001	-0.000002	-0.000000	0.000002	-0.000002	-0.000003	-0.000001	-0.000002	0.000002	0.000002	-0.000004	-0.000003	-0.000006	-0.000002	0.000000	-0.000001	-0.000000	0.000003	-0.000002	0.000001	-0.000004	-0.000004	0.000006	-0.000003	-0.000001	-0.000004	-0.000001	-0.000000	-0.000004	0.000000	0.000003	-0.000005	-0.000000	0.000006	-0.000003	-0.000000	-0.000004	-0.000006	-0.000001	-0.000005	-0.000004	0.000002	-0.000001	-0.000002	-0.000006	0.000003	0.000003	-0.000003	-0.000000	-0.000002	0.000001	-0.000005	0.000002	0.000001	-0.000003	-0.000000	-0.000005	-0.000003	-0.000000	-0.000003	-0.000002	-0.000005	0.000001	0.000001	-0.000000	-0.000006	-0.000000	0.000000	-0.000005	-0.000006	-0.000005	-0.000003	0.000006	-0.000004	0.000002	-0.000006	-0.000005	-0.000006	0.000000	-0.000004	-0.000008	-0.000003	-0.000006	0.000001	0.000001	0.000002	-0.000001	-0.000003	-0.000000	0.000000	0.000006	0.000005	-0.000003	-0.000002	0.000001	0.000003	0.000002	0.000005	-0.000000	0.000001	-0.000002	-0.000000	0.000001	0.000006	0.000001	-0.000005	-0.000001	0.000005	0.000002	-0.000003	0.000001	-0.000001	-0.000003	0.000004	0.000002	0.000003	-0.000000	0.000001	-0.000006	-0.000006	0.000001	-0.000000	0.000006	-0.000004	0.000000	0.000004	0.000003	-0.000000	0.000000	0.000006	0.000001	0.000001	-0.000006	-0.000006	0.000002	-0.000005	0.000002	-0.000002	0.000001	0.000001	0.000002	-0.000003	0.000001	0.000001	0.000002	0.000001	0.000001	0.000003	0.000005	0.000000	-0.000004	0.000002	-0.000002	-0.000000	0.000001	-0.000001	0.000004	0.000006	-0.000003	-0.000001	0.000001	0.000001	-0.000001	0.000000	0.000001	-0.000001	-0.000004	-0.000003	-0.000001	-0.000002	0.000004	-0.000002	-0.000005	-0.000006	-0.000002	-0.000001	-0.000004	-0.000002	0.000002	0.000001	-0.000000	0.000001	0.000000	-0.000005	-0.000005	-0.000001	0.000001	-0.000001	-0.000003	-0.000003	-0.000006	-0.000006	-0.000004	-0.000004	-0.000007	0.000003	-0.000000	-0.000003	0.000000	-0.000003	-0.000002	-0.000005	-0.000000	-0.000001	0.000001	-0.000003	0.000004	0.000001	-0.000001	-0.000001	0.000000	-0.000000	-0.000005	0.000006	-0.000000	0.000001	0.000001	-0.000006	-0.000002	-0.000001	
SCALARS UDOT.z float
LOOKUP_TABLE default
0.000000	0.000000	0.000000	0.000000	0.000000	0.000000	0.000000	0.000000	0.000000	0.000000	0.000000	0.000000	0.000000	0.000000	0.000000	0.000000	0.000000	0.000000	0.000000	0.000000	0.000000	0.000000	0.000000	0.000000	0.000000	0.000000	0.000000	0.000000	0.000000	0.000000	0.000000	0.000000	0.000000	0.000000	0.000000	0.000000	0.000000	0.000000	0.000000	0.000000	0.000000	0.000000	0.000000	0.000000	0.000000	0.000000	0.000000	0.000000	0.000000	0.000000	0.000000	0.000000	0.000000	0.000000	0.000000	0.000000	0.000000	0.000000	0.000000	0.000000	0.000000	0.000000	0.000000	0.000000	0.000000	0.000000	0.000000	0.000000	0.000000	0.000000	0.000000	0.000000	0.000000	0.000000	0.000000	0.000000	0.000000	0.000000	0.000000	0.000000	0.000000	0.000000	0.000000	0.000000	0.000000	0.000000	0.000000	0.000000	0.000000	0.000000	0.000000	0.000000	0.000000	0.000000	0.000000	0.000000	0.000000	0.000000	0.000000	0.000000	0.000000	0.000000	0.000000	0.000000	0.000000	0.000000	0.000000	0.000000	0.000000	0.000000	0.000000	0.000000	0.000000	0.000000	0.000000	0.000000	0.000000	0.000000	0.000000	0.000000	0.000000	0.000000	0.000000	0.000000	0.000000	0.000000	0.000000	0.000000	0.000000	0.000000	0.000000	0.000000	0.000000	0.000000	0.000000	0.000000	0.000000	0.000000	0.000000	0.000000	0.000000	0.000000	0.000000	0.000000	0.000000	0.000000	0.000000	0.000000	0.000000	0.000000	0.000000	0.000000	0.000000	0.000000	0.000000	0.000000	0.000000	0.000000	0.000000	0.000000	0.000000	0.000000	0.000000	0.000000	0.000000	0.000000	0.000000	0.000000	0.000000	0.000000	0.000000	0.000000	0.000000	0.000000	0.000000	0.000000	0.000000	0.000000	0.000000	0.000000	0.000000	0.000000	0.000000	0.000000	0.000000	0.000000	0.000000	0.000000	0.000000	0.000000	0.000000	0.000000	0.000000	0.000000	0.000000	0.000000	0.000000	0.000000	0.000000	0.000000	0.000000	0.000000	0.000000	0.000000	0.000000	0.000000	0.000000	0.000000	0.000000	0.000000	0.000000	0.000000	0.000000	0.000000	0.000000	0.000000	0.000000	0.000000	0.000000	0.000000	0.000000	0.000000	0.000000	0.000000	0.000000	0.000000	0.000000	0.000000	0.000000	0.000000	0.000000	0.000000	0.000000	0.000000	0.000000	0.000000	0.000000	0.000000	0.000000	0.000000	0.000000	0.000000	0.000000	0.000000	0.000000	0.000000	0.000000	0.000000	0.000000	0.000000	0.000000	0.000000	0.000000	0.000000	0.000000	0.000000	0.000000	0.000000	0.000000	0.000000	0.000000	0.000000	0.000000	0.000000	0.000000	0.000000	0.000000	0.000000	0.000000	0.000000	0.000000	0.000000	0.000000	0.000000	0.000000	0.000000	0.000000	0.000000	0.000000	0.000000	0.000000	0.000000	0.000000	0.000000	0.000000	0.000000	0.000000	0.000000	0.000000	0.000000	0.000000	0.000000	0.000000	0.000000	0.000000	0.000000	0.000000	0.000000	0.000000	0.000000	0.000000	0.000000	0.000000	0.000000	0.000000	0.000000	0.000000	0.000000	0.000000	0.000000	0.000000	0.000000	0.000000	0.000000	0.000000	0.000000	0.000000	0.000000	0.000000	0.000000	0.000000	0.000000	0.000000	0.000000	0.000000	0.000000	0.000000	0.000000	0.000000	0.000000	0.000000	0.000000	0.000000	0.000000	0.000000	0.000000	0.000000	0.000000	0.000000	0.000000	0.000000	0.000000	0.000000	0.000000	0.000000	0.000000	0.000000	0.000000	0.000000	0.000000	0.000000	0.000000	0.000000	0.000000	0.000000	0.000000	0.000000	0.000000	0.000000	0.000000	0.000000	0.000000	0.000000	0.000000	0.000000	0.000000	0.000000	0.000000	0.000000	0.000000	0.000000	0.000000	0.000000	0.000000	0.000000	0.000000	0.000000	0.000000	0.000000	0.000000	0.000000	0.000000	0.000000	0.000000	0.000000	0.000000	0.000000	0.000000	0.000000	0.000000	0.000000	0.000000	0.000000	0.000000	0.000000	0.000000	0.000000	0.000000	0.000000	0.000000	0.000000	0.000000	0.000000	0.000000	0.000000	0.000000	0.000000	0.000000	0.000000	0.000000	0.000000	0.000000	0.000000	0.000000	0.000000	0.000000	0.000000	0.000000	0.000000	0.000000	0.000000	0.000000	0.000000	0.000000	0.000000	0.000000	0.000000	0.000000	0.000000	0.000000	0.000000	0.000000	0.000000	0.000000	0.000000	0.000000	0.000000	0.000000	0.000000	0.000000	0.000000	0.000000	0.000000	0.000000	0.000000	0.000000	0.000000	0.000000	0.000000	0.000000	0.000000	0.000000	0.000000	0.000000	0.000000	0.000000	0.000000	0.000000	0.000000	0.000000	0.000000	0.000000	0.000000	0.000000	0.000000	0.000000	0.000000	0.000000	0.000000	0.000000	0.000000	0.000000	0.000000	0.000000	0.000000	0.000000	0.000000	0.000000	0.000000	0.000000	0.000000	0.000000	0.000000	0.000000	0.000000	0.000000	0.000000	0.000000	0.000000	0.000000	0.000000	0.000000	0.000000	0.000000	0.000000	0.000000	0.000000	0.000000	0.000000	0.000000	0.000000	0.000000	0.000000	0.000000	0.000000	0.000000	0.000000	0.000000	0.000000	0.000000	0.000000	0.000000	0.000000	0.000000	0.000000	0.000000	0.000000	0.000000	0.000000	0.000000	0.000000	0.000000	0.000000	0.000000	0.000000	0.000000	0.000000	0.000000	0.000000	0.000000	0.000000	0.000000	0.000000	0.000000	0.000000	0.000000	0.000000	0.000000	0.000000	0.000000	0.000000	0.000000	0.000000	0.000000	0.000000	0.000000	0.000000	0.000000	0.000000	0.000000	0.000000	0.000000	0.000000	0.000000	0.000000	0.000000	0.000000	0.000000	0.000000	0.000000	0.000000	0.000000	0.000000	0.000000	0.000000	0.000000	0.000000	0.000000	0.000000	0.000000	0.000000	0.000000	0.000000	0.000000	0.000000	0.000000	0.000000	0.000000	0.000000	0.000000	0.000000	0.000000	0.000000	0.000000	0.000000	0.000000	0.000000	0.000000	0.000000	0.000000	0.000000	0.000000	0.000000	0.000000	0.000000	0.000000	0.000000	0.000000	0.000000	0.000000	0.000000	0.000000	0.000000	0.000000	0.000000	0.000000	0.000000	0.000000	0.000000	0.000000	0.000000	0.000000	0.000000	0.000000	0.000000	0.000000	0.000000	0.000000	0.000000	0.000000	0.000000	0.000000	0.000000	0.000000	0.000000	0.000000	0.000000	0.000000	0.000000	0.000000	0.000000	0.000000	0.000000	0.000000	0.000000	0.000000	0.000000	0.000000	0.000000	0.000000	0.000000	0.000000	0.000000	0.000000	0.000000	0.000000	0.000000	0.000000	0.000000	0.000000	0.000000	0.000000	0.000000	0.000000	0.000000	0.000000	0.000000	0.000000	0.000000	0.000000	0.000000	0.000000	0.000000	0.000000	0.000000	0.000000	0.000000	0.000000	0.000000	0.000000	0.000000	0.000000	0.000000	0.000000	0.000000	0.000000	0.000000	0.000000	0.000000	0.000000	0.000000	0.000000	0.000000	0.000000	0.000000	0.000000	0.000000	0.000000	0.000000	0.000000	0.000000	0.000000	0.000000	0.000000	0.000000	0.000000	0.000000	0.000000	0.000000	0.000000	0.000000	0.000000	0.000000	0.000000	0.000000	0.000000	0.000000	0.000000	0.000000	0.000000	0.000000	0.000000	0.000000	0.000000	0.000000	0.000000	0.000000	0.000000	0.000000	0.000000	0.000000	0.000000	0.000000	0.000000	0.000000	0.000000	0.000000	0.000000	0.000000	0.000000	0.000000	0.000000	0.000000	0.000000	0.000000	0.000000	0.000000	0.000000	0.000000	0.000000	0.000000	0.000000	0.000000	0.000000	0.000000	0.000000	0.000000	0.000000	0.000000	0.000000	0.000000	0.000000	0.000000	0.000000	0.000000	0.000000	0.000000	0.000000	0.000000	0.000000	0.000000	0.000000	0.000000	0.000000	0.000000	0.000000	0.000000	0.000000	0.000000	0.000000	0.000000	0.000000	0.000000	0.000000	0.000000	0.000000	0.000000	0.000000	0.000000	0.000000	0.000000	0.000000	0.000000	0.000000	0.000000	0.000000	0.000000	0.000000	0.000000	0.000000	0.000000	0.000000	0.000000	0.000000	0.000000	0.000000	0.000000	0.000000	0.000000	0.000000	0.000000	0.000000	0.000000	0.000000	0.000000	0.000000	0.000000	0.000000	0.000000	0.000000	0.000000	0.000000	0.000000	0.000000	0.000000	0.000000	0.000000	0.000000	0.000000	0.000000	0.000000	0.000000	0.000000	0.000000	0.000000	0.000000	0.000000	0.000000	0.000000	0.000000	0.000000	0.000000	0.000000	0.000000	0.000000	0.000000	0.000000	0.000000	0.000000	0.000000	0.000000	0.000000	0.000000	0.000000	0.000000	0.000000	0.000000	0.000000	0.000000	0.000000	0.000000	0.000000	0.000000	0.000000	0.000000	0.000000	0.000000	0.000000	0.000000	0.000000	0.000000	0.000000	0.000000	0.000000	0.000000	0.000000	0.000000	0.000000	0.000000	0.000000	0.000000	0.000000	0.000000	0.000000	0.000000	0.000000	0.000000	0.000000	0.000000	0.000000	0.000000	0.000000	0.000000	0.000000	0.000000	0.000000	0.000000	0.000000	0.000000	0.000000	0.000000	0.000000	0.000000	0.000000	0.000000	0.000000	0.000000	0.000000	0.000000	0.000000	0.000000	0.000000	0.000000	0.000000	0.000000	0.000000	0.000000	0.000000	0.000000	0.000000	0.000000	0.000000	0.000000	0.000000	0.000000	0.000000	0.000000	0.000000	0.000000	0.000000	0.000000	0.000000	0.000000	0.000000	0.000000	0.000000	0.000000	0.000000	0.000000	0.000000	0.000000	0.000000	0.000000	0.000000	0.000000	0.000000	0.000000	0.000000	0.000000	0.000000	0.000000	0.000000	0.000000	0.000000	0.000000	0.000000	0.000000	0.000000	0.000000	0.000000	0.000000	0.000000	0.000000	0.000000	0.000000	0.000000	0.000000	0.000000	0.000000	0.000000	0.000000	0.000000	0.000000	0.000000	0.000000	0.000000	0.000000	0.000000	0.000000	0.000000	0.000000	0.000000	0.000000	0.000000	0.000000	0.000000	0.000000	0.000000	0.000000	0.000000	0.000000	0.000000	0.000000	0.000000	0.000000	0.000000	0.000000	0.000000	0.000000	0.000000	0.000000	0.000000	0.000000	0.000000	0.000000	0.000000	0.000000	0.000000	0.000000	0.000000	0.000000	0.000000	0.000000	0.000000	0.000000	0.000000	0.000000	0.000000	0.000000	0.000000	0.000000	0.000000	0.000000	0.000000	0.000000	0.000000	0.000000	0.000000	0.000000	0.000000	0.000000	0.000000	
SCALARS THETA.x float
LOOKUP_TABLE default
0.000000	0.000000	0.000000	0.000000	0.000000	0.000000	0.000000	0.000000	0.000000	0.000000	0.000000	0.000000	0.000000	0.000000	0.000000	0.000000	0.000000	0.000000	0.000000	0.000000	0.000000	0.000000	0.000000	0.000000	0.000000	0.000000	0.000000	0.000000	0.000000	0.000000	0.000000	0.000000	0.000000	0.000000	0.000000	0.000000	0.000000	0.000000	0.000000	0.000000	0.000000	0.000000	0.000000	0.000000	0.000000	0.000000	0.000000	0.000000	0.000000	0.000000	0.000000	0.000000	0.000000	0.000000	0.000000	0.000000	0.000000	0.000000	0.000000	0.000000	0.000000	0.000000	0.000000	0.000000	0.000000	0.000000	0.000000	0.000000	0.000000	0.000000	0.000000	0.000000	0.000000	0.000000	0.000000	0.000000	0.000000	0.000000	0.000000	0.000000	0.000000	0.000000	0.000000	0.000000	0.000000	0.000000	0.000000	0.000000	0.000000	0.000000	0.000000	0.000000	0.000000	0.000000	0.000000	0.000000	0.000000	0.000000	0.000000	0.000000	0.000000	0.000000	0.000000	0.000000	0.000000	0.000000	0.000000	0.000000	0.000000	0.000000	0.000000	0.000000	0.000000	0.000000	0.000000	0.000000	0.000000	0.000000	0.000000	0.000000	0.000000	0.000000	0.000000	0.000000	0.000000	0.000000	0.000000	0.000000	0.000000	0.000000	0.000000	0.000000	0.000000	0.000000	0.000000	0.000000	0.000000	0.000000	0.000000	0.000000	0.000000	0.000000	0.000000	0.000000	0.000000	0.000000	0.000000	0.000000	0.000000	0.000000	0.000000	0.000000	0.000000	0.000000	0.000000	0.000000	0.000000	0.000000	0.000000	0.000000	0.000000	0.000000	0.000000	0.000000	0.000000	0.000000	0.000000	0.000000	0.000000	0.000000	0.000000	0.000000	0.000000	0.000000	0.000000	0.000000	0.000000	0.000000	0.000000	0.000000	0.000000	0.000000	0.000000	0.000000	0.000000	0.000000	0.000000	0.000000	0.000000	0.000000	0.000000	0.000000	0.000000	0.000000	0.000000	0.000000	0.000000	0.000000	0.000000	0.000000	0.000000	0.000000	0.000000	0.000000	0.000000	0.000000	0.000000	0.000000	0.000000	0.000000	0.000000	0.000000	0.000000	0.000000	0.000000	0.000000	0.000000	0.000000	0.000000	0.000000	0.000000	0.000000	0.000000	0.000000	0.000000	0.000000	0.000000	0.000000	0.000000	0.000000	0.000000	0.000000	0.000000	0.000000	0.000000	0.000000	0.000000	0.000000	0.000000	0.000000	0.000000	0.000000	0.000000	0.000000	0.000000	0.000000	0.000000	0.000000	0.000000	0.000000	0.000000	0.000000	0.000000	0.000000	0.000000	0.000000	0.000000	0.000000	0.000000	0.000000	0.000000	0.000000	0.000000	0.000000	0.000000	0.000000	0.000000	0.000000	0.000000	0.000000	0.000000	0.000000	0.000000	0.000000	0.000000	0.000000	0.000000	0.000000	0.000000	0.000000	0.000000	0.000000	0.000000	0.000000	0.000000	0.000000	0.000000	0.000000	0.000000	0.000000	0.000000	0.000000	0.000000	0.000000	0.000000	0.000000	0.000000	0.000000	0.000000	0.000000	0.000000	0.000000	0.000000	0.000000	0.000000	0.000000	0.000000	0.000000	0.000000	0.000000	0.000000	0.000000	0.000000	0.000000	0.000000	0.000000	0.000000	0.000000	0.000000	0.000000	0.000000	0.000000	0.000000	0.000000	0.000000	0.000000	0.000000	0.000000	0.000000	0.000000	0.000000	0.000000	0.000000	0.000000	0.000000	0.000000	0.000000	0.000000	0.000000	0.000000	0.000000	0.000000	0.000000	0.000000	0.000000	0.000000	0.000000	0.000000	0.000000	0.000000	0.000000	0.000000	0.000000	0.000000	0.000000	0.000000	0.000000	0.000000	0.000000	0.000000	0.000000	0.000000	0.000000	0.000000	0.000000	0.000000	0.000000	0.000000	0.000000	0.000000	0.000000	0.000000	0.000000	0.000000	0.000000	0.000000	0.000000	0.000000	0.000000	0.000000	0.000000	0.000000	0.000000	0.000000	0.000000	0.000000	0.000000	0.000000	0.000000	0.000000	0.000000	0.000000	0.000000	0.000000	0.000000	0.000000	0.000000	0.000000	0.000000	0.000000	0.000000	0.000000	0.000000	0.000000	0.000000	0.000000	0.000000	0.000000	0.000000	0.000000	0.000000	0.000000	0.000000	0.000000	0.000000	0.000000	0.000000	0.000000	0.000000	0.000000	0.000000	0.000000	0.000000	0.000000	0.000000	0.000000	0.000000	0.000000	0.000000	0.000000	0.000000	0.000000	0.000000	0.000000	0.000000	0.000000	0.000000	0.000000	0.000000	0.000000	0.000000	0.000000	0.000000	0.000000	0.000000	0.000000	0.000000	0.000000	0.000000	0.000000	0.000000	0.000000	0.000000	0.000000	0.000000	0.000000	0.000000	0.000000	0.000000	0.000000	0.000000	0.000000	0.000000	0.000000	0.000000	0.000000	0.000000	0.000000	0.000000	0.000000	0.000000	0.000000	0.000000	0.000000	0.000000	0.000000	0.000000	0.000000	0.000000	0.000000	0.000000	0.000000	0.000000	0.000000	0.000000	0.000000	0.000000	0.000000	0.000000	0.000000	0.000000	0.000000	0.000000	0.000000	0.000000	0.000000	0.000000	0.000000	0.000000	0.000000	0.000000	0.000000	0.000000	0.000000	0.000000	0.000000	0.000000	0.000000	0.000000	0.000000	0.000000	0.000000	0.000000	0.000000	0.000000	0.000000	0.000000	0.000000	0.000000	0.000000	0.000000	0.000000	0.000000	0.000000	0.000000	0.000000	0.000000	0.000000	0.000000	0.000000	0.000000	0.000000	0.000000	0.000000	0.000000	0.000000	0.000000	0.000000	0.000000	0.000000	0.000000	0.000000	0.000000	0.000000	0.000000	0.000000	0.000000	0.000000	0.000000	0.000000	0.000000	0.000000	0.000000	0.000000	0.000000	0.000000	0.000000	0.000000	0.000000	0.000000	0.000000	0.000000	0.000000	0.000000	0.000000	0.000000	0.000000	0.000000	0.000000	0.000000	0.000000	0.000000	0.000000	0.000000	0.000000	0.000000	0.000000	0.000000	0.000000	0.000000	0.000000	0.000000	0.000000	0.000000	0.000000	0.000000	0.000000	0.000000	0.000000	0.000000	0.000000	0.000000	0.000000	0.000000	0.000000	0.000000	0.000000	0.000000	0.000000	0.000000	0.000000	0.000000	0.000000	0.000000	0.000000	0.000000	0.000000	0.000000	0.000000	0.000000	0.000000	0.000000	0.000000	0.000000	0.000000	0.000000	0.000000	0.000000	0.000000	0.000000	0.000000	0.000000	0.000000	0.000000	0.000000	0.000000	0.000000	0.000000	0.000000	0.000000	0.000000	0.000000	0.000000	0.000000	0.000000	0.000000	0.000000	0.000000	0.000000	0.000000	0.000000	0.000000	0.000000	0.000000	0.000000	0.000000	0.000000	0.000000	0.000000	0.000000	0.000000	0.000000	0.000000	0.000000	0.000000	0.000000	0.000000	0.000000	0.000000	0.000000	0.000000	0.000000	0.000000	0.000000	0.000000	0.000000	0.000000	0.000000	0.000000	0.000000	0.000000	0.000000	0.000000	0.000000	0.000000	0.000000	0.000000	0.000000	0.000000	0.000000	0.000000	0.000000	0.000000	0.000000	0.000000	0.000000	0.000000	0.000000	0.000000	0.000000	0.000000	0.000000	0.000000	0.000000	0.000000	0.000000	0.000000	0.000000	0.000000	0.000000	0.000000	0.000000	0.000000	0.000000	0.000000	0.000000	0.000000	0.000000	0.000000	0.000000	0.000000	0.000000	0.000000	0.000000	0.000000	0.000000	0.000000	0.000000	0.000000	0.000000	0.000000	0.000000	0.000000	0.000000	0.000000	0.000000	0.000000	0.000000	0.000000	0.000000	0.000000	0.000000	0.000000	0.000000	0.000000	0.000000	0.000000	0.000000	0.000000	0.000000	0.000000	0.000000	0.000000	0.000000	0.000000	0.000000	0.000000	0.000000	0.000000	0.000000	0.000000	0.000000	0.000000	0.000000	0.000000	0.000000	0.000000	0.000000	0.000000	0.000000	0.000000	0.000000	0.000000	0.000000	0.000000	0.000000	0.000000	0.000000	0.000000	0.000000	0.000000	0.000000	0.000000	0.000000	0.000000	0.000000	0.000000	0.000000	0.000000	0.000000	0.000000	0.000000	0.000000	0.000000	0.000000	0.000000	0.000000	0.000000	0.000000	0.000000	0.000000	0.000000	0.000000	0.000000	0.000000	0.000000	0.000000	0.000000	0.000000	0.000000	0.000000	0.000000	0.000000	0.000000	0.000000	0.000000	0.000000	0.000000	0.000000	0.000000	0.000000	0.000000	0.000000	0.000000	0.000000	0.000000	0.000000	0.000000	0.000000	0.000000	0.000000	0.000000	0.000000	0.000000	0.000000	0.000000	0.000000	0.000000	0.000000	0.000000	0.000000	0.000000	0.000000	0.000000	0.000000	0.000000	0.000000	0.000000	0.000000	0.000000	0.000000	0.000000	0.000000	0.000000	0.000000	0.000000	0.000000	0.000000	0.000000	0.000000	0.000000	0.000000	0.000000	0.000000	0.000000	0.000000	0.000000	0.000000	0.000000	0.000000	0.000000	0.000000	0.000000	0.000000	0.000000	0.000000	0.000000	0.000000	0.000000	0.000000	0.000000	0.000000	0.000000	0.000000	0.000000	0.000000	0.000000	0.000000	0.000000	0.000000	0.000000	0.000000	0.000000	0.000000	0.000000	0.000000	0.000000	0.000000	0.000000	0.000000	0.000000	0.000000	0.000000	0.000000	0.000000	0.000000	0.000000	0.000000	0.000000	0.000000	0.000000	0.000000	0.000000	0.000000	0.000000	0.000000	0.000000	0.000000	0.000000	0.000000	0.000000	0.000000	0.000000	0.000000	0.000000	0.000000	0.000000	0.000000	0.000000	0.000000	0.000000	0.000000	0.000000	0.000000	0.000000	0.000000	0.000000	0.000000	0.000000	0.000000	0.000000	0.000000	0.000000	0.000000	0.000000	0.000000	0.000000	0.000000	0.000000	0.000000	0.000000	0.000000	0.000000	0.000000	0.000000	0.000000	0.000000	0.000000	0.000000	0.000000	0.000000	0.000000	0.000000	0.000000	0.000000	0.000000	0.000000	0.000000	0.000000	0.000000	0.000000	0.000000	0.000000	0.000000	0.000000	0.000000	0.000000	0.000000	0.000000	0.000000	0.000000	0.000000	0.000000	0.000000	0.000000	0.000000	0.000000	0.000000	0.000000	0.000000	0.000000	0.000000	0.000000	0.000000	0.000000	0.000000	0.000000	0.000000	0.000000	0.000000	0.000000	0.000000	0.000000	0.000000	0.000000	0.000000	0.000000	0.000000	0.000000	0.000000	0.000000	0.000000	0.000000	0.000000	0.000000	0.000000	0.000000	0.000000	0.000000	0.000000	0.000000	0.000000	0.000000	0.000000	0.000000	0.000000	0.000000	0.000000	0.000000	0.000000	0.000000	0.000000	
SCALARS THETA.y float
LOOKUP_TABLE default
0.000000	0.000000	0.000000	0.000000	0.000000	0.000000	0.000000	0.000000	0.000000	0.000000	0.000000	0.000000	0.000000	0.000000	0.000000	0.000000	0.000000	0.000000	0.000000	0.000000	0.000000	0.000000	0.000000	0.000000	0.000000	0.000000	0.000000	0.000000	0.000000	0.000000	0.000000	0.000000	0.000000	0.000000	0.000000	0.000000	0.000000	0.000000	0.000000	0.000000	0.000000	0.000000	0.000000	0.000000	0.000000	0.000000	0.000000	0.000000	0.000000	0.000000	0.000000	0.000000	0.000000	0.000000	0.000000	0.000000	0.000000	0.000000	0.000000	0.000000	0.000000	0.000000	0.000000	0.000000	0.000000	0.000000	0.000000	0.000000	0.000000	0.000000	0.000000	0.000000	0.000000	0.000000	0.000000	0.000000	0.000000	0.000000	0.000000	0.000000	0.000000	0.000000	0.000000	0.000000	0.000000	0.000000	0.000000	0.000000	0.000000	0.000000	0.000000	0.000000	0.000000	0.000000	0.000000	0.000000	0.000000	0.000000	0.000000	0.000000	0.000000	0.000000	0.000000	0.000000	0.000000	0.000000	0.000000	0.000000	0.000000	0.000000	0.000000	0.000000	0.000000	0.000000	0.000000	0.000000	0.000000	0.000000	0.000000	0.000000	0.000000	0.000000	0.000000	0.000000	0.000000	0.000000	0.000000	0.000000	0.000000	0.000000	0.000000	0.000000	0.000000	0.000000	0.000000	0.000000	0.000000	0.000000	0.000000	0.000000	0.000000	0.000000	0.000000	0.000000	0.000000	0.000000	0.000000	0.000000	0.000000	0.000000	0.000000	0.000000	0.000000	0.000000	0.000000	0.000000	0.000000	0.000000	0.000000	0.000000	0.000000	0.000000	0.000000	0.000000	0.000000	0.000000	0.000000	0.000000	0.000000	0.000000	0.000000	0.000000	0.000000	0.000000	0.000000	0.000000	0.000000	0.000000	0.000000	0.000000	0.000000	0.000000	0.000000	0.000000	0.000000	0.000000	0.000000	0.000000	0.000000	0.000000	0.000000	0.000000	0.000000	0.000000	0.000000	0.000000	0.000000	0.000000	0.000000	0.000000	0.000000	0.000000	0.000000	0.000000	0.000000	0.000000	0.000000	0.000000	0.000000	0.000000	0.000000	0.000000	0.000000	0.000000	0.000000	0.000000	0.000000	0.000000	0.000000	0.000000	0.000000	0.000000	0.000000	0.000000	0.000000	0.000000	0.000000	0.000000	0.000000	0.000000	0.000000	0.000000	0.000000	0.000000	0.000000	0.000000	0.000000	0.000000	0.000000	0.000000	0.000000	0.000000	0.000000	0.000000	0.000000	0.000000	0.000000	0.000000	0.000000	0.000000	0.000000	0.000000	0.000000	0.000000	0.000000	0.000000	0.000000	0.000000	0.000000	0.000000	0.000000	0.000000	0.000000	0.000000	0.000000	0.000000	0.000000	0.000000	0.000000	0.000000	0.000000	0.000000	0.000000	0.000000	0.000000	0.000000	0.000000	0.000000	0.000000	0.000000	0.000000	0.000000	0.000000	0.000000	0.000000	0.000000	0.000000	0.000000	0.000000	0.000000	0.000000	0.000000	0.000000	0.000000	0.000000	0.000000	0.000000	0.000000	0.000000	0.000000	0.000000	0.000000	0.000000	0.000000	0.000000	0.000000	0.000000	0.000000	0.000000	0.000000	0.000000	0.000000	0.000000	0.000000	0.000000	0.000000	0.000000	0.000000	0.000000	0.000000	0.000000	0.000000	0.000000	0.000000	0.000000	0.000000	0.000000	0.000000	0.000000	0.000000	0.000000	0.000000	0.000000	0.000000	0.000000	0.000000	0.000000	0.000000	0.000000	0.000000	0.000000	0.000000	0.000000	0.000000	0.000000	0.000000	0.000000	0.000000	0.000000	0.000000	0.000000	0.000000	0.000000	0.000000	0.000000	0.000000	0.000000	0.000000	0.000000	0.000000	0.000000	0.000000	0.000000	0.000000	0.000000	0.000000	0.000000	0.000000	0.000000	0.000000	0.000000	0.000000	0.000000	0.000000	0.000000	0.000000	0.000000	0.000000	0.000000	0.000000	0.000000	0.000000	0.000000	0.000000	0.000000	0.000000	0.000000	0.000000	0.000000	0.000000	0.000000	0.000000	0.000000	0.000000	0.000000	0.000000	0.000000	0.000000	0.000000	0.000000	0.000000	0.000000	0.000000	0.000000	0.000000	0.000000	0.000000	0.000000	0.000000	0.000000	0.000000	0.000000	0.000000	0.000000	0.000000	0.000000	0.000000	0.000000	0.000000	0.000000	0.000000	0.000000	0.000000	0.000000	0.000000	0.000000	0.000000	0.000000	0.000000	0.000000	0.000000	0.000000	0.000000	0.000000	0.000000	0.000000	0.000000	0.000000	0.000000	0.000000	0.000000	0.000000	0.000000	0.000000	0.000000	0.000000	0.000000	0.000000	0.000000	0.000000	0.000000	0.000000	0.000000	0.000000	0.000000	0.000000	0.000000	0.000000	0.000000	0.000000	0.000000	0.000000	0.000000	0.000000	0.000000	0.000000	0.000000	0.000000	0.000000	0.000000	0.000000	0.000000	0.000000	0.000000	0.000000	0.000000	0.000000	0.000000	0.000000	0.000000	0.000000	0.000000	0.000000	0.000000	0.000000	0.000000	0.000000	0.000000	0.000000	0.000000	0.000000	0.000000	0.000000	0.000000	0.000000	0.000000	0.000000	0.000000	0.000000	0.000000	0.000000	0.000000	0.000000	0.000000	0.000000	0.000000	0.000000	0.000000	0.000000	0.000000	0.000000	0.000000	0.000000	0.000000	0.000000	0.000000	0.000000	0.000000	0.000000	0.000000	0.000000	0.000000	0.000000	0.000000	0.000000	0.000000	0.000000	0.000000	0.000000	0.000000	0.000000	0.000000	0.000000	0.000000	0.000000	0.000000	0.000000	0.000000	0.000000	0.000000	0.000000	0.000000	0.000000	0.000000	0.000000	0.000000	0.000000	0.000000	0.000000	0.000000	0.000000	0.000000	0.000000	0.000000	0.000000	0.000000	0.000000	0.000000	0.000000	0.000000	0.000000	0.000000	0.000000	0.000000	0.000000	0.000000	0.000000	0.000000	0.000000	0.000000	0.000000	0.000000	0.000000	0.000000	0.000000	0.000000	0.000000	0.000000	0.000000	0.000000	0.000000	0.000000	0.000000	0.000000	0.000000	0.000000	0.000000	0.000000	0.000000	0.000000	0.000000	0.000000	0.000000	0.000000	0.000000	0.000000	0.000000	0.000000	0.000000	0.000000	0.000000	0.000000	0.000000	0.000000	0.000000	0.000000	0.000000	0.000000	0.000000	0.000000	0.000000	0.000000	0.000000	0.000000	0.000000	0.000000	0.000000	0.000000	0.000000	0.000000	0.000000	0.000000	0.000000	0.000000	0.000000	0.000000	0.000000	0.000000	0.000000	0.000000	0.000000	0.000000	0.000000	0.000000	0.000000	0.000000	0.000000	0.000000	0.000000	0.000000	0.000000	0.000000	0.000000	0.000000	0.000000	0.000000	0.000000	0.000000	0.000000	0.000000	0.000000	0.000000	0.000000	0.000000	0.000000	0.000000	0.000000	0.000000	0.000000	0.000000	0.000000	0.000000	0.000000	0.000000	0.000000	0.000000	0.000000	0.000000	0.000000	0.000000	0.000000	0.000000	0.000000	0.000000	0.000000	0.000000	0.000000	0.000000	0.000000	0.000000	0.000000	0.000000	0.000000	0.000000	0.000000	0.000000	0.000000	0.000000	0.000000	0.000000	0.000000	0.000000	0.000000	0.000000	0.000000	0.000000	0.000000	0.000000	0.000000	0.000000	0.000000	0.000000	0.000000	0.000000	0.000000	0.000000	0.000000	0.000000	0.000000	0.000000	0.000000	0.000000	0.000000	0.000000	0.000000	0.000000	0.000000	0.000000	0.000000	0.000000	0.000000	0.000000	0.000000	0.000000	0.000000	0.000000	0.000000	0.000000	0.000000	0.000000	0.000000	0.000000	0.000000	0.000000	0.000000	0.000000	0.000000	0.000000	0.000000	0.000000	0.000000	0.000000	0.000000	0.000000	0.000000	0.000000	0.000000	0.000000	0.000000	0.000000	0.000000	0.000000	0.000000	0.000000	0.000000	0.000000	0.000000	0.000000	0.000000	0.000000	0.000000	0.000000	0.000000	0.000000	0.000000	0.000000	0.000000	0.000000	0.000000	0.000000	0.000000	0.000000	0.000000	0.000000	0.000000	0.000000	0.000000	0.000000	0.000000	0.000000	0.000000	0.000000	0.000000	0.000000	0.000000	0.000000	0.000000	0.000000	0.000000	0.000000	0.000000	0.000000	0.000000	0.000000	0.000000	0.000000	0.000000	0.000000	0.000000	0.000000	0.000000	0.000000	0.000000	0.000000	0.000000	0.000000	0.000000	0.000000	0.000000	0.000000	0.000000	0.000000	0.000000	0.000000	0.000000	0.000000	0.000000	0.000000	0.000000	0.000000	0.000000	0.000000	0.000000	0.000000	0.000000	0.000000	0.000000	0.000000	0.000000	0.000000	0.000000	0.000000	0.000000	0.000000	0.000000	0.000000	0.000000	0.000000	0.000000	0.000000	0.000000	0.000000	0.000000	0.000000	0.000000	0.000000	0.000000	0.000000	0.000000	0.000000	0.000000	0.000000	0.000000	0.000000	0.000000	0.000000	0.000000	0.000000	0.000000	0.000000	0.000000	0.000000	0.000000	0.000000	0.000000	0.000000	0.000000	0.000000	0.000000	0.000000	0.000000	0.000000	0.000000	0.000000	0.000000	0.000000	0.000000	0.000000	0.000000	0.000000	0.000000	0.000000	0.000000	0.000000	0.000000	0.000000	0.000000	0.000000	0.000000	0.000000	0.000000	0.000000	0.000000	0.000000	0.000000	0.000000	0.000000	0.000000	0.000000	0.000000	0.000000	0.000000	0.000000	0.000000	0.000000	0.000000	0.000000	0.000000	0.000000	0.000000	0.000000	0.000000	0.000000	0.000000	0.000000	0.000000	0.000000	0.000000	0.000000	0.000000	0.000000	0.000000	0.000000	0.000000	0.000000	0.000000	0.000000	0.000000	0.000000	0.000000	0.000000	0.000000	0.000000	0.000000	0.000000	0.000000	0.000000	0.000000	0.000000	0.000000	0.000000	0.000000	0.000000	0.000000	0.000000	0.000000	0.000000	0.000000	0.000000	0.000000	0.000000	0.000000	0.000000	0.000000	0.000000	0.000000	0.000000	0.000000	0.000000	0.000000	0.000000	0.000000	0.000000	0.000000	0.000000	0.000000	0.000000	0.000000	0.000000	0.000000	0.000000	0.000000	0.000000	0.000000	0.000000	0.000000	0.000000	0.000000	0.000000	0.000000	0.000000	0.000000	0.000000	0.000000	0.000000	0.000000	0.000000	0.000000	0.000000	0.000000	0.000000	0.000000	0.000000	0.000000	0.000000	0.000000	0.000000	0.000000	0.000000	0.000000	0.000000	0.000000	0.000000	0.000000	0.000000	0.000000	0.000000	0.000000	0.000000	0.000000	0.000000	0.000000	0.000000	0.000000	0.000000	0.000000	0.000000	0.000000	0.000000	0.000000	0.000000	0.000000	
SCALARS THETA.z float
LOOKUP_TABLE default
0.000000	0.000000	0.000000	0.000000	0.000000	0.000000	0.000000	0.000000	0.000000	0.000000	0.000000	0.000000	0.000000	0.000000	0.000000	0.000000	0.000000	0.000000	0.000000	0.000000	0.000000	0.000000	0.000000	0.000000	0.000000	0.000000	0.000000	0.000000	0.000000	0.000000	0.000000	0.000000	0.000000	0.000000	0.000000	0.000000	0.000000	0.000000	0.000000	0.000000	0.000000	0.000000	0.000000	0.000000	0.000000	0.000000	0.000000	0.000000	0.000000	0.000000	0.000000	0.000000	0.000000	0.000000	0.000000	0.000000	0.000000	0.000000	0.000000	0.000000	0.000000	0.000000	0.000000	0.000000	0.000000	0.000000	0.000000	0.000000	0.000000	0.000000	0.000000	0.000000	0.000000	0.000000	0.000000	0.000000	0.000000	0.000000	0.000000	0.000000	0.000000	0.000000	0.000000	0.000000	0.000000	0.000000	0.000000	0.000000	0.000000	0.000000	0.000000	0.000000	0.000000	0.000000	0.000000	0.000000	0.000000	0.000000	0.000000	0.000000	0.000000	0.000000	0.000000	0.000000	0.000000	0.000000	0.000000	0.000000	0.000000	0.000000	0.000000	0.000000	0.000000	0.000000	0.000000	0.000000	0.000000	0.000000	0.000000	0.000000	0.000000	0.000000	0.000000	0.000000	0.000000	0.000000	0.000000	0.000000	0.000000	0.000000	0.000000	0.000000	0.000000	0.000000	0.000000	0.000000	0.000000	0.000000	0.000000	0.000000	0.000000	0.000000	0.000000	0.000000	0.000000	0.000000	0.000000	0.000000	0.000000	0.000000	0.000000	0.000000	0.000000	0.000000	0.000000	0.000000	0.000000	0.000000	0.000000	0.000000	0.000000	0.000000	0.000000	0.000000	0.000000	0.000000	0.000000	0.000000	0.000000	0.000000	0.000000	0.000000	0.000000	0.000000	0.000000	0.000000	0.000000	0.000000	0.000000	0.000000	0.000000	0.000000	0.000000	0.000000	0.000000	0.000000	0.000000	0.000000	0.000000	0.000000	0.000000	0.000000	0.000000	0.000000	0.000000	0.000000	0.000000	0.000000	0.000000	0.000000	0.000000	0.000000	0.000000	0.000000	0.000000	0.000000	0.000000	0.000000	0.000000	0.000000	0.000000	0.000000	0.000000	0.000000	0.000000	0.000000	0.000000	0.000000	0.000000	0.000000	0.000000	0.000000	3.730000	-30.700000	-100.000000	-1.540000	77.200000	-83.100000	-70.100000	28.200000	-366.000000	469.000000	-31.400000	1.360000	138.000000	-23.100000	269.000000	30.900000	49.800000	3.130000	-22.900000	252.000000	-21.800000	-27.800000	27.000000	108.000000	-41.100000	143.000000	49.900000	-81.200000	19.500000	130.000000	99.000000	17.400000	107.000000	-173.000000	-3.730000	61.200000	-65.900000	45.800000	-4.140000	25.300000	8.760000	-375.000000	-158.000000	59.800000	-7.390000	-27.100000	-26.800000	-30.500000	-81.700000	-136.000000	-7.940000	519.000000	-22.600000	10.500000	221.000000	-0.888000	-23.200000	-82.600000	47.800000	9.430000	92.600000	3.550000	-114.000000	107.000000	-2.530000	-50.200000	-112.000000	126.000000	-60.000000	-37.300000	-178.000000	-17.000000	306.000000	30.800000	89.400000	-123.000000	-11.100000	3.520000	-127.000000	-30.200000	-9.390000	33.600000	-16.400000	39.500000	-29.400000	109.000000	-43.600000	-11.600000	-12.100000	-31.600000	-107.000000	306.000000	-79.200000	67.100000	-12.300000	-140.000000	92.500000	-14.800000	-89.700000	-19.700000	-50.300000	-35.200000	-119.000000	144.000000	-176.000000	25.600000	304.000000	-112.000000	7.740000	20.000000	60.400000	85.600000	236.000000	67.500000	44.500000	-309.000000	56.700000	-56.400000	-88.700000	-175.000000	-15.400000	274.000000	-55.700000	-58.100000	-4.890000	-11.300000	-174.000000	-74.000000	-6.080000	108.000000	213.000000	-137.000000	105.000000	-57.500000	-84.800000	-39.100000	861.000000	7.260000	70.000000	-31.300000	25.200000	-158.000000	-32.300000	56.100000	-14.700000	246.000000	-123.000000	67.700000	11.400000	131.000000	217.000000	-54.300000	75.900000	-73.000000	47.600000	455.000000	267.000000	30.100000	-11.300000	6.330000	-236.000000	-35.000000	35.600000	137.000000	-78.500000	-65.000000	-75.100000	-52.000000	-140.000000	-143.000000	-68.100000	-224.000000	328.000000	83.900000	24.500000	107.000000	450.000000	-2.270000	377.000000	95.800000	73.300000	-115.000000	19.000000	78.900000	-28.100000	26.900000	98.200000	203.000000	-91.700000	95.100000	-0.607000	832.000000	-128.000000	-32.600000	63.300000	18.400000	92.500000	-84.200000	107.000000	-83.000000	-17.300000	230.000000	37.600000	122.000000	34.100000	78.600000	-66.400000	-49.500000	-103.000000	-99.600000	-59.600000	-107.000000	-72.800000	-0.985000	71.000000	-681.000000	-31.000000	68.500000	117.000000	103.000000	70.400000	76.000000	75.700000	423.000000	168.000000	-175.000000	-408.000000	-156.000000	96.600000	-730.000000	42.200000	-158.000000	-46.200000	2.350000	-124.000000	26.600000	-18.900000	-60.900000	-22.500000	169.000000	-4.720000	-52.200000	-115.000000	-33.100000	-56.600000	-164.000000	-67.400000	243.000000	-10.800000	4.780000	23.300000	132.000000	593.000000	23.100000	-231.000000	-97.800000	12.300000	-9.820000	49.400000	-12.200000	-55.800000	425.000000	-119.000000	-395.000000	159.000000	90.300000	249.000000	-120.000000	82.700000	-15.800000	-23.200000	58.700000	-241.000000	14.500000	-33.900000	432.000000	-25.600000	71.300000	-464.000000	-214.000000	77.800000	182.000000	46.100000	-10.100000	3.130000	-150.000000	-272.000000	29.200000	103.000000	-2.370000	31.000000	285.000000	-3.290000	-5.860000	163.000000	9.260000	40.400000	23.800000	272.000000	-0.570000	273.000000	-165.000000	180.000000	-9.920000	60.800000	117.000000	-83.400000	168.000000	17.500000	16.500000	-58.100000	5.350000	-198.000000	633.000000	27.200000	61.500000	-161.000000	-116.000000	106.000000	-57.900000	-12.300000	-19.400000	51.000000	164.000000	410.000000	-79.000000	-104.000000	129.000000	-260.000000	10.300000	237.000000	28.000000	146.000000	396.000000	78.200000	-849.000000	110.000000	60.200000	85.800000	-141.000000	194.000000	75.200000	90.400000	-127.000000	-176.000000	74.600000	-35.300000	226.000000	-7.580000	70.600000	119.000000	-17.100000	-254.000000	103.000000	113.000000	220.000000	42.000000	219.000000	32.700000	-3.280000	175.000000	-49.900000	-62.700000	78.500000	113.000000	-165.000000	-468.000000	-195.000000	-302.000000	-154.000000	336.000000	-485.000000	22.600000	260.000000	-67.600000	108.000000	79.800000	-65.200000	-37.800000	69.800000	-502.000000	-226.000000	143.000000	945.000000	335.000000	252.000000	-397.000000	-78.100000	96.900000	-145.000000	-68.800000	-40.900000	-20.900000	-250.000000	305.000000	-25.900000	-500.000000	67.500000	-15.100000	98.400000	-202.000000	103.000000	72.800000	120.000000	-164.000000	-77.700000	-268.000000	63.100000	-111.000000	29.400000	147.000000	66.500000	-27.200000	-73.000000	-259.000000	-127.000000	48.800000	-329.000000	88.400000	-16.100000	-416.000000	174.000000	-192.000000	411.000000	-196.000000	23.400000	-87.900000	32.300000	202.000000	-615.000000	33.700000	-49.000000	295.000000	-58.300000	-115.000000	-265.000000	253.000000	-321.000000	89.500000	28.900000	59.800000	-11.900000	-516.000000	-14.100000	82.900000	82.500000	-112.000000	-176.000000	19.700000	157.000000	666.000000	76.800000	98.600000	-61.200000	134.000000	126.000000	12.500000	-70.500000	304.000000	103.000000	76.600000	12.700000	-54.700000	-91.100000	90.200000	128.000000	293.000000	71.800000	14.000000	153.000000	-196.000000	24.300000	14.500000	28.000000	-172.000000	111.000000	-199.000000	-81.900000	-7.020000	123.000000	62.700000	-32.300000	70.000000	-154.000000	150.000000	-133.000000	-175.000000	132.000000	-18.700000	-30.900000	331.000000	-42.200000	66.400000	41.400000	-12.500000	65.400000	85.000000	-609.000000	-60.400000	-79.500000	294.000000	138.000000	24.500000	8.740000	156.000000	-167.000000	-118.000000	113.000000	-153.000000	-41.500000	-21.300000	-214.000000	-66.300000	-541.000000	-282.000000	126.000000	228.000000	-55.700000	159.000000	-500.000000	360.000000	9.820000	205.000000	62.900000	-121.000000	458.000000	-317.000000	128.000000	531.000000	125.000000	-156.000000	-14.500000	86.400000	-14.900000	39.800000	-286.000000	-50.700000	-142.000000	-98.600000	22.800000	-52.000000	112.000000	54.800000	-102.000000	35.300000	269.000000	23.200000	466.000000	203.000000	68.700000	-493.000000	-352.000000	-325.000000	-366.000000	3.190000	-65.000000	-65.300000	223.000000	29.500000	46.900000	-262.000000	168.000000	-12.800000	-494.000000	55.200000	235.000000	5.130000	53.300000	-88.800000	-340.000000	54.100000	-25.600000	-380.000000	71.300000	-397.000000	178.000000	-232.000000	106.000000	-80.400000	353.000000	422.000000	-366.000000	-199.000000	661.000000	-85.200000	-548.000000	95.400000	123.000000	-34.600000	105.000000	-83.900000	153.000000	-152.000000	-42.400000	-22.700000	50.200000	-349.000000	145.000000	126.000000	87.700000	39.300000	242.000000	-174.000000	2.980000	64.100000	201.000000	201.000000	75.100000	-24.100000	116.000000	68.000000	209.000000	141.000000	28.500000	-174.000000	-195.000000	-49.400000	-51.900000	250.000000	-355.000000	-214.000000	-18.700000	74.800000	-25.100000	51.400000	180.000000	66.200000	-41.200000	39.700000	-242.000000	-159.000000	200.000000	-314.000000	-154.000000	35.200000	163.000000	-10.500000	-164.000000	63.800000	63.200000	62.400000	226.000000	-89.100000	114.000000	-49.200000	-219.000000	251.000000	-51.000000	123.000000	69.100000	141.000000	102.000000	-90.200000	99.600000	123.000000	-77.500000	79.600000	82.000000	-27.500000	47.600000	-232.000000	5.340000	56.700000	65.200000	108.000000	122.000000	-118.000000	121.000000	22.200000	226.000000	-109.000000	237.000000	76.300000	-59.200000	196.000000	62.500000	15.800000	-121.000000	71.600000	-47.800000	2.790000	-140.000000	207.000000	-295.000000	161.000000	171.000000	-137.000000	-377.000000	56.400000	121.000000	31.500000	80.800000	70.800000	350.000000	-27.700000	-69.000000	178.000000	-85.400000	239.000000	-28.400000	-118.000000	-125.000000	-78.500000	110.000000	50.300000	184.000000	220.000000	36.200000	607.000000	-502.000000	-30.300000	209.000000	-200.000000	291.000000	-223.000000	-37.200000	390.000000	297.000000	-51.000000	114.000000	-61.100000	-519.000000	2.950000	-79.100000	-161.000000	46.200000	-161.000000	-41.000000	272.000000	-270.000000	519.000000	-18.400000	-503.000000	-69.000000	137.000000	-65.200000	-392.000000	106.000000	262.000000	-297.000000	271.000000	138.000000	-76.600000	-123.000000	-183.000000	398.000000	55.200000	-324.000000	-48.500000	214.000000	-52.100000	-79.200000	155.000000	-56.700000	11.200000	-410.000000	67.500000	-231.000000	157.000000	-80.900000	-196.000000	104.000000	98.000000	-518.000000	223.000000	38.000000	-270.000000	-93.900000	342.000000	190.000000	153.000000	-71.700000	-163.000000	-187.000000	-187.000000	-66.400000	-15.900000	322.000000	-576.000000	26.900000	-127.000000	-3.030000	-179.000000	98.600000	-317.000000	-212.000000	-241.000000	160.000000	23.600000	102.000000	143.000000	145.000000	-35.400000	60.000000	-11.800000	247.000000	8.960000	134.000000	-74.800000	-251.000000	
SCALARS TDOT.x float
LOOKUP_TABLE default
0.000000	0.000000	0.000000	0.000000	0.000000	0.000000	0.000000	0.000000	0.000000	0.000000	0.000000	0.000000	0.000000	0.000000	0.000000	0.000000	0.000000	0.000000	0.000000	0.000000	0.000000	0.000000	0.000000	0.000000	0.000000	0.000000	0.000000	0.000000	0.000000	0.000000	0.000000	0.000000	0.000000	0.000000	0.000000	0.000000	0.000000	0.000000	0.000000	0.000000	0.000000	0.000000	0.000000	0.000000	0.000000	0.000000	0.000000	0.000000	0.000000	0.000000	0.000000	0.000000	0.000000	0.000000	0.000000	0.000000	0.000000	0.000000	0.000000	0.000000	0.000000	0.000000	0.000000	0.000000	0.000000	0.000000	0.000000	0.000000	0.000000	0.000000	0.000000	0.000000	0.000000	0.000000	0.000000	0.000000	0.000000	0.000000	0.000000	0.000000	0.000000	0.000000	0.000000	0.000000	0.000000	0.000000	0.000000	0.000000	0.000000	0.000000	0.000000	0.000000	0.000000	0.000000	0.000000	0.000000	0.000000	0.000000	0.000000	0.000000	0.000000	0.000000	0.000000	0.000000	0.000000	0.000000	0.000000	0.000000	0.000000	0.000000	0.000000	0.000000	0.000000	0.000000	0.000000	0.000000	0.000000	0.000000	0.000000	0.000000	0.000000	0.000000	0.000000	0.000000	0.000000	0.000000	0.000000	0.000000	0.000000	0.000000	0.000000	0.000000	0.000000	0.000000	0.000000	0.000000	0.000000	0.000000	0.000000	0.000000	0.000000	0.000000	0.000000	0.000000	0.000000	0.000000	0.000000	0.000000	0.000000	0.000000	0.000000	0.000000	0.000000	0.000000	0.000000	0.000000	0.000000	0.000000	0.000000	0.000000	0.000000	0.000000	0.000000	0.000000	0.000000	0.000000	0.000000	0.000000	0.000000	0.000000	0.000000	0.000000	0.000000	0.000000	0.000000	0.000000	0.000000	0.000000	0.000000	0.000000	0.000000	0.000000	0.000000	0.000000	0.000000	0.000000	0.000000	0.000000	0.000000	0.000000	0.000000	0.000000	0.000000	0.000000	0.000000	0.000000	0.000000	0.000000	0.000000	0.000000	0.000000	0.000000	0.000000	0.000000	0.000000	0.000000	0.000000	0.000000	0.000000	0.000000	0.000000	0.000000	0.000000	0.000000	0.000000	0.000000	0.000000	0.000000	0.000000	0.000000	0.000000	0.000000	0.000000	0.000000	0.000000	0.000000	0.000000	0.000000	0.000000	0.000000	0.000000	0.000000	0.000000	0.000000	0.000000	0.000000	0.000000	0.000000	0.000000	0.000000	0.000000	0.000000	0.000000	0.000000	0.000000	0.000000	0.000000	0.000000	0.000000	0.000000	0.000000	0.000000	0.000000	0.000000	0.000000	0.000000	0.000000	0.000000	0.000000	0.000000	0.000000	0.000000	0.000000	0.000000	0.000000	0.000000	0.000000	0.000000	0.000000	0.000000	0.000000	0.000000	0.000000	0.000000	0.000000	0.000000	0.000000	0.000000	0.000000	0.000000	0.000000	0.000000	0.000000	0.000000	0.000000	0.000000	0.000000	0.000000	0.000000	0.000000	0.000000	0.000000	0.000000	0.000000	0.000000	0.000000	0.000000	0.000000	0.000000	0.000000	0.000000	0.000000	0.000000	0.000000	0.000000	0.000000	0.000000	0.000000	0.000000	0.000000	0.000000	0.000000	0.000000	0.000000	0.000000	0.000000	0.000000	0.000000	0.000000	0.000000	0.000000	0.000000	0.000000	0.000000	0.000000	0.000000	0.000000	0.000000	0.000000	0.000000	0.000000	0.000000	0.000000	0.000000	0.000000	0.000000	0.000000	0.000000	0.000000	0.000000	0.000000	0.000000	0.000000	0.000000	0.000000	0.000000	0.000000	0.000000	0.000000	0.000000	0.000000	0.000000	0.000000	0.000000	0.000000	0.000000	0.000000	0.000000	0.000000	0.000000	0.000000	0.000000	0.000000	0.000000	0.000000	0.000000	0.000000	0.000000	0.000000	0.000000	0.000000	0.000000	0.000000	0.000000	0.000000	0.000000	0.000000	0.000000	0.000000	0.000000	0.000000	0.000000	0.000000	0.000000	0.000000	0.000000	0.000000	0.000000	0.000000	0.000000	0.000000	0.000000	0.000000	0.000000	0.000000	0.000000	0.000000	0.000000	0.000000	0.000000	0.000000	0.000000	0.000000	0.000000	0.000000	0.000000	0.000000	0.000000	0.000000	0.000000	0.000000	0.000000	0.000000	0.000000	0.000000	0.000000	0.000000	0.000000	0.000000	0.000000	0.000000	0.000000	0.000000	0.000000	0.000000	0.000000	0.000000	0.000000	0.000000	0.000000	0.000000	0.000000	0.000000	0.000000	0.000000	0.000000	0.000000	0.000000	0.000000	0.000000	0.000000	0.000000	0.000000	0.000000	0.000000	0.000000	0.000000	0.000000	0.000000	0.000000	0.000000	0.000000	0.000000	0.000000	0.000000	0.000000	0.000000	0.000000	0.000000	0.000000	0.000000	0.000000	0.000000	0.000000	0.000000	0.000000	0.000000	0.000000	0.000000	0.000000	0.000000	0.000000	0.000000	0.000000	0.000000	0.000000	0.000000	0.000000	0.000000	0.000000	0.000000	0.000000	0.000000	0.000000	0.000000	0.000000	0.000000	0.000000	0.000000	0.000000	0.000000	0.000000	0.000000	0.000000	0.000000	0.000000	0.000000	0.000000	0.000000	0.000000	0.000000	0.000000	0.000000	0.000000	0.000000	0.000000	0.000000	0.000000	0.000000	0.000000	0.000000	0.000000	0.000000	0.000000	0.000000	0.000000	0.000000	0.000000	0.000000	0.000000	0.000000	0.000000	0.000000	0.000000	0.000000	0.000000	0.000000	0.000000	0.000000	0.000000	0.000000	0.000000	0.000000	0.000000	0.000000	0.000000	0.000000	0.000000	0.000000	0.000000	0.000000	0.000000	0.000000	0.000000	0.000000	0.000000	0.000000	0.000000	0.000000	0.000000	0.000000	0.000000	0.000000	0.000000	0.000000	0.000000	0.000000	0.000000	0.000000	0.000000	0.000000	0.000000	0.000000	0.000000	0.000000	0.000000	0.000000	0.000000	0.000000	0.000000	0.000000	0.000000	0.000000	0.000000	0.000000	0.000000	0.000000	0.000000	0.000000	0.000000	0.000000	0.000000	0.000000	0.000000	0.000000	0.000000	0.000000	0.000000	0.000000	0.000000	0.000000	0.000000	0.000000	0.000000	0.000000	0.000000	0.000000	0.000000	0.000000	0.000000	0.000000	0.000000	0.000000	0.000000	0.000000	0.000000	0.000000	0.000000	0.000000	0.000000	0.000000	0.000000	0.000000	0.000000	0.000000	0.000000	0.000000	0.000000	0.000000	0.000000	0.000000	0.000000	0.000000	0.000000	0.000000	0.000000	0.000000	0.000000	0.000000	0.000000	0.000000	0.000000	0.000000	0.000000	0.000000	0.000000	0.000000	0.000000	0.000000	0.000000	0.000000	0.000000	0.000000	0.000000	0.000000	0.000000	0.000000	0.000000	0.000000	0.000000	0.000000	0.000000	0.000000	0.000000	0.000000	0.000000	0.000000	0.000000	0.000000	0.000000	0.000000	0.000000	0.000000	0.000000	0.000000	0.000000	0.000000	0.000000	0.000000	0.000000	0.000000	0.000000	0.000000	0.000000	0.000000	0.000000	0.000000	0.000000	0.000000	0.000000	0.000000	0.000000	0.000000	0.000000	0.000000	0.000000	0.000000	0.000000	0.000000	0.000000	0.000000	0.000000	0.000000	0.000000	0.000000	0.000000	0.000000	0.000000	0.000000	0.000000	0.000000	0.000000	0.000000	0.000000	0.000000	0.000000	0.000000	0.000000	0.000000	0.000000	0.000000	0.000000	0.000000	0.000000	0.000000	0.000000	0.000000	0.000000	0.000000	0.000000	0.000000	0.000000	0.000000	0.000000	0.000000	0.000000	0.000000	0.000000	0.000000	0.000000	0.000000	0.000000	0.000000	0.000000	0.000000	0.000000	0.000000	0.000000	0.000000	0.000000	0.000000	0.000000	0.000000	0.000000	0.000000	0.000000	0.000000	0.000000	0.000000	0.000000	0.000000	0.000000	0.000000	0.000000	0.000000	0.000000	0.000000	0.000000	0.000000	0.000000	0.000000	0.000000	0.000000	0.000000	0.000000	0.000000	0.000000	0.000000	0.000000	0.000000	0.000000	0.000000	0.000000	0.000000	0.000000	0.000000	0.000000	0.000000	0.000000	0.000000	0.000000	0.000000	0.000000	0.000000	0.000000	0.000000	0.000000	0.000000	0.000000	0.000000	0.000000	0.000000	0.000000	0.000000	0.000000	0.000000	0.000000	0.000000	0.000000	0.000000	0.000000	0.000000	0.000000	0.000000	0.000000	0.000000	0.000000	0.000000	0.000000	0.000000	0.000000	0.000000	0.000000	0.000000	0.000000	0.000000	0.000000	0.000000	0.000000	0.000000	0.000000	0.000000	0.000000	0.000000	0.000000	0.000000	0.000000	0.000000	0.000000	0.000000	0.000000	0.000000	0.000000	0.000000	0.000000	0.000000	0.000000	0.000000	0.000000	0.000000	0.000000	0.000000	0.000000	0.000000	0.000000	0.000000	0.000000	0.000000	0.000000	0.000000	0.000000	0.000000	0.000000	0.000000	0.000000	0.000000	0.000000	0.000000	0.000000	0.000000	0.000000	0.000000	0.000000	0.000000	0.000000	0.000000	0.000000	0.000000	0.000000	0.000000	0.000000	0.000000	0.000000	0.000000	0.000000	0.000000	0.000000	0.000000	0.000000	0.000000	0.000000	0.000000	0.000000	0.000000	0.000000	0.000000	0.000000	0.000000	0.000000	0.000000	0.000000	0.000000	0.000000	0.000000	0.000000	0.000000	0.000000	0.000000	0.000000	0.000000	0.000000	0.000000	0.000000	0.000000	0.000000	0.000000	0.000000	0.000000	0.000000	0.000000	0.000000	0.000000	0.000000	0.000000	0.000000	0.000000	0.000000	0.000000	0.000000	0.000000	0.000000	0.000000	0.000000	0.000000	0.000000	0.000000	0.000000	0.000000	0.000000	0.000000	0.000000	0.000000	0.000000	0.000000	0.000000	0.000000	0.000000	0.000000	0.000000	0.000000	0.000000	0.000000	0.000000	0.000000	0.000000	0.000000	0.000000	0.000000	0.000000	0.000000	0.000000	0.000000	0.000000	0.000000	0.000000	0.000000	0.000000	0.000000	0.000000	0.000000	0.000000	0.000000	0.000000	0.000000	0.000000	0.000000	0.000000	0.000000	0.000000	0.000000	0.000000	0.000000	0.000000	0.000000	0.000000	0.000000	0.000000	0.000000	0.000000	0.000000	0.000000	0.000000	0.000000	0.000000	0.000000	0.000000	0.000000	0.000000	0.000000	0.000000	0.000000	0.000000	0.000000	0.000000	0.000000	0.000000	0.000000	0.000000	0.000000	0.000000	0.000000	0.000000	0.000000	0.000000	0.000000	0.000000	0.000000	0.000000	0.000000	0.000000	0.000000	0.000000	0.000000	0.000000	0.000000	0.000000	0.000000	0.000000	0.000000	0.000000	0.000000	0.000000	
SCALARS TDOT.y float
LOOKUP_TABLE default
0.000000	0.000000	0.000000	0.000000	0.000000	0.000000	0.000000	0.000000	0.000000	0.000000	0.000000	0.000000	0.000000	0.000000	0.000000	0.000000	0.000000	0.000000	0.000000	0.000000	0.000000	0.000000	0.000000	0.000000	0.000000	0.000000	0.000000	0.000000	0.000000	0.000000	0.000000	0.000000	0.000000	0.000000	0.000000	0.000000	0.000000	0.000000	0.000000	0.000000	0.000000	0.000000	0.000000	0.000000	0.000000	0.000000	0.000000	0.000000	0.000000	0.000000	0.000000	0.000000	0.000000	0.000000	0.000000	0.000000	0.000000	0.000000	0.000000	0.000000	0.000000	0.000000	0.000000	0.000000	0.000000	0.000000	0.000000	0.000000	0.000000	0.000000	0.000000	0.000000	0.000000	0.000000	0.000000	0.000000	0.000000	0.000000	0.000000	0.000000	0.000000	0.000000	0.000000	0.000000	0.000000	0.000000	0.000000	0.000000	0.000000	0.000000	0.000000	0.000000	0.000000	0.000000	0.000000	0.000000	0.000000	0.000000	0.000000	0.000000	0.000000	0.000000	0.000000	0.000000	0.000000	0.000000	0.000000	0.000000	0.000000	0.000000	0.000000	0.000000	0.000000	0.000000	0.000000	0.000000	0.000000	0.000000	0.000000	0.000000	0.000000	0.000000	0.000000	0.000000	0.000000	0.000000	0.000000	0.000000	0.000000	0.000000	0.000000	0.000000	0.000000	0.000000	0.000000	0.000000	0.000000	0.000000	0.000000	0.000000	0.000000	0.000000	0.000000	0.000000	0.000000	0.000000	0.000000	0.000000	0.000000	0.000000	0.000000	0.000000	0.000000	0.000000	0.000000	0.000000	0.000000	0.000000	0.000000	0.000000	0.000000	0.000000	0.000000	0.000000	0.000000	0.000000	0.000000	0.000000	0.000000	0.000000	0.000000	0.000000	0.000000	0.000000	0.000000	0.000000	0.000000	0.000000	0.000000	0.000000	0.000000	0.000000	0.000000	0.000000	0.000000	0.000000	0.000000	0.000000	0.000000	0.000000	0.000000	0.000000	0.000000	0.000000	0.000000	0.000000	0.000000	0.000000	0.000000	0.000000	0.000000	0.000000	0.000000	0.000000	0.000000	0.000000	0.000000	0.000000	0.000000	0.000000	0.000000	0.000000	0.000000	0.000000	0.000000	0.000000	0.000000	0.000000	0.000000	0.000000	0.000000	0.000000	0.000000	0.000000	0.000000	0.000000	0.000000	0.000000	0.000000	0.000000	0.000000	0.000000	0.000000	0.000000	0.000000	0.000000	0.000000	0.000000	0.000000	0.000000	0.000000	0.000000	0.000000	0.000000	0.000000	0.000000	0.000000	0.000000	0.000000	0.000000	0.000000	0.000000	0.000000	0.000000	0.000000	0.000000	0.000000	0.000000	0.000000	0.000000	0.000000	0.000000	0.000000	0.000000	0.000000	0.000000	0.000000	0.000000	0.000000	0.000000	0.000000	0.000000	0.000000	0.000000	0.000000	0.000000	0.000000	0.000000	0.000000	0.000000	0.000000	0.000000	0.000000	0.000000	0.000000	0.000000	0.000000	0.000000	0.000000	0.000000	0.000000	0.000000	0.000000	0.000000	0.000000	0.000000	0.000000	0.000000	0.000000	0.000000	0.000000	0.000000	0.000000	0.000000	0.000000	0.000000	0.000000	0.000000	0.000000	0.000000	0.000000	0.000000	0.000000	0.000000	0.000000	0.000000	0.000000	0.000000	0.000000	0.000000	0.000000	0.000000	0.000000	0.000000	0.000000	0.000000	0.000000	0.000000	0.000000	0.000000	0.000000	0.000000	0.000000	0.000000	0.000000	0.000000	0.000000	0.000000	0.000000	0.000000	0.000000	0.000000	0.000000	0.000000	0.000000	0.000000	0.000000	0.000000	0.000000	0.000000	0.000000	0.000000	0.000000	0.000000	0.000000	0.000000	0.000000	0.000000	0.000000	0.000000	0.000000	0.000000	0.000000	0.000000	0.000000	0.000000	0.000000	0.000000	0.000000	0.000000	0.000000	0.000000	0.000000	0.000000	0.000000	0.000000	0.000000	0.000000	0.000000	0.000000	0.000000	0.000000	0.000000	0.000000	0.000000	0.000000	0.000000	0.000000	0.000000	0.000000	0.000000	0.000000	0.000000	0.000000	0.000000	0.000000	0.000000	0.000000	0.000000	0.000000	0.000000	0.000000	0.000000	0.000000	0.000000	0.000000	0.000000	0.000000	0.000000	0.000000	0.000000	0.000000	0.000000	0.000000	0.000000	0.000000	0.000000	0.000000	0.000000	0.000000	0.000000	0.000000	0.000000	0.000000	0.000000	0.000000	0.000000	0.000000	0.000000	0.000000	0.000000	0.000000	0.000000	0.000000	0.000000	0.000000	0.000000	0.000000	0.000000	0.000000	0.000000	0.000000	0.000000	0.000000	0.000000	0.000000	0.000000	0.000000	0.000000	0.000000	0.000000	0.000000	0.000000	0.000000	0.000000	0.000000	0.000000	0.000000	0.000000	0.000000	0.000000	0.000000	0.000000	0.000000	0.000000	0.000000	0.000000	0.000000	0.000000	0.000000	0.000000	0.000000	0.000000	0.000000	0.000000	0.000000	0.000000	0.000000	0.000000	0.000000	0.000000	0.000000	0.000000	0.000000	0.000000	0.000000	0.000000	0.000000	0.000000	0.000000	0.000000	0.000000	0.000000	0.000000	0.000000	0.000000	0.000000	0.000000	0.000000	0.000000	0.000000	0.000000	0.000000	0.000000	0.000000	0.000000	0.000000	0.000000	0.000000	0.000000	0.000000	0.000000	0.000000	0.000000	0.000000	0.000000	0.000000	0.000000	0.000000	0.000000	0.000000	0.000000	0.000000	0.000000	0.000000	0.000000	0.000000	0.000000	0.000000	0.000000	0.000000	0.000000	0.000000	0.000000	0.000000	0.000000	0.000000	0.000000	0.000000	0.000000	0.000000	0.000000	0.000000	0.000000	0.000000	0.000000	0.000000	0.000000	0.000000	0.000000	0.000000	0.000000	0.000000	0.000000	0.000000	0.000000	0.000000	0.000000	0.000000	0.000000	0.000000	0.000000	0.000000	0.000000	0.000000	0.000000	0.000000	0.000000	0.000000	0.000000	0.000000	0.000000	0.000000	0.000000	0.000000	0.000000	0.000000	0.000000	0.000000	0.000000	0.000000	0.000000	0.000000	0.000000	0.000000	0.000000	0.000000	0.000000	0.000000	0.000000	0.000000	0.000000	0.000000	0.000000	0.000000	0.000000	0.000000	0.000000	0.000000	0.000000	0.000000	0.000000	0.000000	0.000000	0.000000	0.000000	0.000000	0.000000	0.000000	0.000000	0.000000	0.000000	0.000000	0.000000	0.000000	0.000000	0.000000	0.000000	0.000000	0.000000	0.000000	0.000000	0.000000	0.000000	0.000000	0.000000	0.000000	0.000000	0.000000	0.000000	0.000000	0.000000	0.000000	0.000000	0.000000	0.000000	0.000000	0.000000	0.000000	0.000000	0.000000	0.000000	0.000000	0.000000	0.000000	0.000000	0.000000	0.000000	0.000000	0.000000	0.000000	0.000000	0.000000	0.000000	0.000000	0.000000	0.000000	0.000000	0.000000	0.000000	0.000000	0.000000	0.000000	0.000000	0.000000	0.000000	0.000000	0.000000	0.000000	0.000000	0.000000	0.000000	0.000000	0.000000	0.000000	0.000000	0.000000	0.000000	0.000000	0.000000	0.000000	0.000000	0.000000	0.000000	0.000000	0.000000	0.000000	0.000000	0.000000	0.000000	0.000000	0.000000	0.000000	0.000000	0.000000	0.000000	0.000000	0.000000	0.000000	0.000000	0.000000	0.000000	0.000000	0.000000	0.000000	0.000000	0.000000	0.000000	0.000000	0.000000	0.000000	0.000000	0.000000	0.000000	0.000000	0.000000	0.000000	0.000000	0.000000	0.000000	0.000000	0.000000	0.000000	0.000000	0.000000	0.000000	0.000000	0.000000	0.000000	0.000000	0.000000	0.000000	0.000000	0.000000	0.000000	0.000000	0.000000	0.000000	0.000000	0.000000	0.000000	0.000000	0.000000	0.000000	0.000000	0.000000	0.000000	0.000000	0.000000	0.000000	0.000000	0.000000	0.000000	0.000000	0.000000	0.000000	0.000000	0.000000	0.000000	0.000000	0.000000	0.000000	0.000000	0.000000	0.000000	0.000000	0.000000	0.000000	0.000000	0.000000	0.000000	0.000000	0.000000	0.000000	0.000000	0.000000	0.000000	0.000000	0.000000	0.000000	0.000000	0.000000	0.000000	0.000000	0.000000	0.000000	0.000000	0.000000	0.000000	0.000000	0.000000	0.000000	0.000000	0.000000	0.000000	0.000000	0.000000	0.000000	0.000000	0.000000	0.000000	0.000000	0.000000	0.000000	0.000000	0.000000	0.000000	0.000000	0.000000	0.000000	0.000000	0.000000	0.000000	0.000000	0.000000	0.000000	0.000000	0.000000	0.000000	0.000000	0.000000	0.000000	0.000000	0.000000	0.000000	0.000000	0.000000	0.000000	0.000000	0.000000	0.000000	0.000000	0.000000	0.000000	0.000000	0.000000	0.000000	0.000000	0.000000	0.000000	0.000000	0.000000	0.000000	0.000000	0.000000	0.000000	0.000000	0.000000	0.000000	0.000000	0.000000	0.000000	0.000000	0.000000	0.000000	0.000000	0.000000	0.000000	0.000000	0.000000	0.000000	0.000000	0.000000	0.000000	0.000000	0.000000	0.000000	0.000000	0.000000	0.000000	0.000000	0.000000	0.000000	0.000000	0.000000	0.000000	0.000000	0.000000	0.000000	0.000000	0.000000	0.000000	0.000000	0.000000	0.000000	0.000000	0.000000	0.000000	0.000000	0.000000	0.000000	0.000000	0.000000	0.000000	0.000000	0.000000	0.000000	0.000000	0.000000	0.000000	0.000000	0.000000	0.000000	0.000000	0.000000	0.000000	0.000000	0.000000	0.000000	0.000000	0.000000	0.000000	0.000000	0.000000	0.000000	0.000000	0.000000	0.000000	0.000000	0.000000	0.000000	0.000000	0.000000	0.000000	0.000000	0.000000	0.000000	0.000000	0.000000	0.000000	0.000000	0.000000	0.000000	0.000000	0.000000	0.000000	0.000000	0.000000	0.000000	0.000000	0.000000	0.000000	0.000000	0.000000	0.000000	0.000000	0.000000	0.000000	0.000000	0.000000	0.000000	0.000000	0.000000	0.000000	0.000000	0.000000	0.000000	0.000000	0.000000	0.000000	0.000000	0.000000	0.000000	0.000000	0.000000	0.000000	0.000000	0.000000	0.000000	0.000000	0.000000	0.000000	0.000000	0.000000	0.000000	0.000000	0.000000	0.000000	0.000000	0.000000	0.000000	0.000000	0.000000	0.000000	0.000000	0.000000	0.000000	0.000000	0.000000	0.000000	0.000000	0.000000	0.000000	0.000000	0.000000	0.000000	0.000000	0.000000	0.000000	0.000000	0.000000	0.000000	0.000000	0.000000	0.000000	0.000000	0.000000	0.000000	0.000000	0.000000	0.000000	0.000000	0.000000	0.000000	0.000000	0.000000	0.000000	0.000000	0.000000	0.000000	0.000000	0.000000	
SCALARS TDOT.z float
LOOKUP_TABLE default
0.000000	0.000000	0.000000	0.000000	0.000000	0.000000	0.000000	0.000000	0.000000	0.000000	0.000000	0.000000	0.000000	0.000000	0.000000	0.000000	0.000000	0.000000	0.000000	0.000000	0.000000	0.000000	0.000000	0.000000	0.000000	0.000000	0.000000	0.000000	0.000000	0.000000	0.000000	0.000000	0.000000	0.000000	0.000000	0.000000	0.000000	0.000000	0.000000	0.000000	0.000000	0.000000	0.000000	0.000000	0.000000	0.000000	0.000000	0.000000	0.000000	0.000000	0.000000	0.000000	0.000000	0.000000	0.000000	0.000000	0.000000	0.000000	0.000000	0.000000	0.000000	0.000000	0.000000	0.000000	0.000000	0.000000	0.000000	0.000000	0.000000	0.000000	0.000000	0.000000	0.000000	0.000000	0.000000	0.000000	0.000000	0.000000	0.000000	0.000000	0.000000	0.000000	0.000000	0.000000	0.000000	0.000000	0.000000	0.000000	0.000000	0.000000	0.000000	0.000000	0.000000	0.000000	0.000000	0.000000	0.000000	0.000000	0.000000	0.000000	0.000000	0.000000	0.000000	0.000000	0.000000	0.000000	0.000000	0.000000	0.000000	0.000000	0.000000	0.000000	0.000000	0.000000	0.000000	0.000000	0.000000	0.000000	0.000000	0.000000	0.000000	0.000000	0.000000	0.000000	0.000000	0.000000	0.000000	0.000000	0.000000	0.000000	0.000000	0.000000	0.000000	0.000000	0.000000	0.000000	0.000000	0.000000	0.000000	0.000000	0.000000	0.000000	0.000000	0.000000	0.000000	0.000000	0.000000	0.000000	0.000000	0.000000	0.000000	0.000000	0.000000	0.000000	0.000000	0.000000	0.000000	0.000000	0.000000	0.000000	0.000000	0.000000	0.000000	0.000000	0.000000	0.000000	0.000000	0.000000	0.000000	0.000000	0.000000	0.000000	0.000000	0.000000	0.000000	0.000000	0.000000	0.000000	0.000000	0.000000	0.000000	0.000000	0.000000	0.000000	0.000000	0.000000	0.000000	0.000000	0.000000	0.000000	0.000000	0.000000	0.000000	0.000000	0.000000	0.000000	0.000000	0.000000	0.000000	0.000000	0.000000	0.000000	0.000000	0.000000	0.000000	0.000000	0.000000	0.000000	0.000000	0.000000	0.000000	0.000000	0.000000	0.000000	0.000000	0.000000	0.000000	0.000000	0.000000	0.000000	0.000000	0.000000	0.000000	0.000000	-0.000000	0.000000	-0.000000	0.000000	-0.000000	0.000000	-0.000000	-0.000000	0.000000	0.000000	0.000000	0.000000	0.000000	0.000000	-0.000000	-0.000000	0.000000	0.000000	-0.000000	0.000000	0.000000	-0.000000	-0.000000	-0.000000	0.000000	-0.000000	0.000000	-0.000000	0.000000	0.000000	0.000000	0.000000	0.000000	0.000000	-0.000000	-0.000000	-0.000000	0.000000	-0.000000	-0.000000	-0.000000	0.000000	-0.000000	0.000000	-0.000000	-0.000000	-0.000000	0.000000	0.000000	-0.000000	0.000000	-0.000000	-0.000000	-0.000000	0.000000	0.000000	-0.000000	-0.000000	-0.000000	0.000000	-0.000000	0.000000	0.000000	0.000000	-0.000000	0.000000	0.000000	0.000000	0.000000	0.000000	0.000000	0.000000	-0.000000	-0.000000	0.000000	-0.000000	0.000000	0.000000	0.000000	0.000000	0.000000	0.000000	-0.000000	0.000000	-0.000000	-0.000000	0.000000	-0.000000	-0.000000	0.000000	0.000000	-0.000000	-0.000000	0.000000	0.000000	0.000000	0.000000	-0.000000	0.000000	0.000000	0.000000	-0.000000	-0.000000	0.000000	-0.000000	-0.000000	0.000000	0.000000	-0.000000	-0.000000	0.000000	0.000000	-0.000000	-0.000000	0.000000	0.000000	0.000000	0.000000	0.000000	-0.000000	-0.000000	0.000000	-0.000000	-0.000000	-0.000000	-0.000000	0.000000	-0.000000	-0.000000	-0.000000	0.000000	-0.000000	0.000000	0.000000	-0.000000	-0.000000	-0.000000	0.000000	-0.000000	0.000000	0.000000	-0.000000	0.000000	0.000000	-0.000000	-0.000000	0.000000	0.000000	0.000000	0.000000	0.000000	-0.000000	0.000000	0.000000	0.000000	-0.000000	-0.000000	0.000000	-0.000000	-0.000000	-0.000000	-0.000000	0.000000	0.000000	-0.000000	-0.000000	0.000000	0.000000	0.000000	0.000000	0.000000	0.000000	0.000000	-0.000000	0.000000	-0.000000	-0.000000	0.000000	0.000000	0.000000	0.000000	-0.000000	-0.000000	-0.000000	-0.000000	-0.000000	0.000000	-0.000000	0.000000	-0.000000	-0.000000	-0.000000	-0.000000	0.000000	-0.000000	0.000000	0.000000	-0.000000	-0.000000	0.000000	-0.000000	-0.000000	-0.000000	-0.000000	0.000000	-0.000000	-0.000000	0.000000	0.000000	0.000000	-0.000000	0.000000	-0.000000	-0.000000	-0.000000	-0.000000	0.000000	0.000000	-0.000000	0.000000	-0.000000	-0.000000	-0.000000	-0.000000	0.000000	0.000000	-0.000000	-0.000000	-0.000000	-0.000000	0.000000	-0.000000	-0.000000	-0.000000	0.000000	0.000000	-0.000000	-0.000000	0.000000	0.000000	0.000000	-0.000000	-0.000000	-0.000000	0.000000	-0.000000	0.000000	-0.000000	0.000000	0.000000	0.000000	-0.000000	-0.000000	-0.000000	-0.000000	-0.000000	0.000000	0.000000	0.000000	0.000000	0.000000	-0.000000	0.000000	0.000000	0.000000	0.000000	0.000000	0.000000	-0.000000	0.000000	0.000000	-0.000000	-0.000000	0.000000	0.000000	0.000000	0.000000	-0.000000	-0.000000	0.000000	0.000000	0.000000	-0.000000	0.000000	-0.000000	-0.000000	-0.000000	0.000000	-0.000000	-0.000000	0.000000	-0.000000	-0.000000	-0.000000	-0.000000	-0.000000	0.000000	0.000000	-0.000000	-0.000000	0.000000	-0.000000	-0.000000	0.000000	0.000000	0.000000	0.000000	-0.000000	-0.000000	-0.000000	0.000000	0.000000	-0.000000	0.000000	0.000000	0.000000	-0.000000	0.000000	-0.000000	0.000000	-0.000000	-0.000000	-0.000000	0.000000	0.000000	-0.000000	0.000000	-0.000000	-0.000000	0.000000	0.000000	-0.000000	0.000000	0.000000	-0.000000	-0.000000	-0.000000	-0.000000	0.000000	-0.000000	-0.000000	-0.000000	-0.000000	0.000000	0.000000	-0.000000	-0.000000	0.000000	-0.000000	-0.000000	0.000000	0.000000	0.000000	0.000000	0.000000	0.000000	-0.000000	-0.000000	0.000000	0.000000	-0.000000	0.000000	0.000000	0.000000	0.000000	-0.000000	0.000000	0.000000	0.000000	0.000000	0.000000	0.000000	0.000000	0.000000	-0.000000	-0.000000	-0.000000	0.000000	-0.000000	0.000000	0.000000	-0.000000	-0.000000	-0.000000	-0.000000	0.000000	-0.000000	0.000000	0.000000	-0.000000	-0.000000	0.000000	0.000000	0.000000	0.000000	0.000000	0.000000	0.000000	-0.000000	0.000000	-0.000000	-0.000000	-0.000000	0.000000	-0.000000	0.000000	0.000000	0.000000	-0.000000	-0.000000	-0.000000	-0.000000	-0.000000	0.000000	-0.000000	-0.000000	-0.000000	-0.000000	0.000000	0.000000	-0.000000	-0.000000	-0.000000	0.000000	-0.000000	0.000000	0.000000	-0.000000	0.000000	0.000000	-0.000000	-0.000000	-0.000000	0.000000	-0.000000	-0.000000	0.000000	-0.000000	-0.000000	-0.000000	0.000000	-0.000000	0.000000	-0.000000	0.000000	-0.000000	-0.000000	-0.000000	0.000000	0.000000	-0.000000	0.000000	-0.000000	-0.000000	-0.000000	-0.000000	-0.000000	-0.000000	0.000000	-0.000000	-0.000000	-0.000000	-0.000000	-0.000000	0.000000	-0.000000	-0.000000	0.000000	0.000000	0.000000	-0.000000	-0.000000	-0.000000	-0.000000	-0.000000	-0.000000	0.000000	-0.000000	0.000000	-0.000000	-0.000000	0.000000	0.000000	-0.000000	0.000000	0.000000	-0.000000	-0.000000	0.000000	-0.000000	-0.000000	-0.000000	0.000000	-0.000000	0.000000	0.000000	-0.000000	-0.000000	-0.000000	-0.000000	-0.000000	-0.000000	-0.000000	-0.000000	0.000000	0.000000	-0.000000	-0.000000	0.000000	-0.000000	-0.000000	0.000000	0.000000	-0.000000	0.000000	-0.000000	-0.000000	-0.000000	-0.000000	0.000000	0.000000	-0.000000	-0.000000	-0.000000	0.000000	0.000000	0.000000	0.000000	0.000000	0.000000	0.000000	-0.000000	-0.000000	0.000000	-0.000000	-0.000000	-0.000000	-0.000000	0.000000	-0.000000	0.000000	0.000000	-0.000000	-0.000000	0.000000	0.000000	0.000000	-0.000000	0.000000	-0.000000	-0.000000	-0.000000	0.000000	0.000000	-0.000000	0.000000	0.000000	0.000000	0.000000	0.000000	-0.000000	0.000000	0.000000	-0.000000	0.000000	0.000000	-0.000000	0.000000	0.000000	0.000000	-0.000000	0.000000	0.000000	-0.000000	0.000000	0.000000	0.000000	0.000000	-0.000000	-0.000000	-0.000000	0.000000	0.000000	-0.000000	0.000000	-0.000000	0.000000	0.000000	-0.000000	0.000000	0.000000	-0.000000	0.000000	0.000000	0.000000	0.000000	-0.000000	-0.000000	0.000000	0.000000	-0.000000	-0.000000	-0.000000	-0.000000	0.000000	0.000000	-0.000000	0.000000	-0.000000	-0.000000	0.000000	0.000000	-0.000000	0.000000	-0.000000	-0.000000	-0.000000	0.000000	-0.000000	-0.000000	0.000000	-0.000000	-0.000000	0.000000	-0.000000	0.000000	0.000000	-0.000000	-0.000000	0.000000	0.000000	-0.000000	0.000000	-0.000000	-0.000000	-0.000000	-0.000000	0.000000	-0.000000	0.000000	-0.000000	0.000000	0.000000	-0.000000	0.000000	0.000000	-0.000000	0.000000	0.000000	0.000000	-0.000000	-0.000000	0.000000	-0.000000	0.000000	0.000000	0.000000	-0.000000	-0.000000	0.000000	0.000000	0.000000	-0.000000	-0.000000	0.000000	0.000000	-0.000000	-0.000000	-0.000000	-0.000000	-0.000000	-0.000000	0.000000	-0.000000	-0.000000	-0.000000	-0.000000	0.000000	-0.000000	0.000000	0.000000	0.000000	0.000000	0.000000	0.000000	-0.000000	0.000000	-0.000000	0.000000	-0.000000	0.000000	0.000000	0.000000	0.000000	-0.000000	-0.000000	0.000000	-0.000000	-0.000000	0.000000	-0.000000	-0.000000	0.000000	0.000000	-0.000000	-0.000000	-0.000000	-0.000000	-0.000000	0.000000	0.000000	0.000000	0.000000	-0.000000	0.000000	0.000000	0.000000	-0.000000	0.000000	0.000000	0.000000	-0.000000	-0.000000	-0.000000	-0.000000	-0.000000	0.000000	-0.000000	-0.000000	0.000000	-0.000000	-0.000000	-0.000000	0.000000	-0.000000	0.000000	0.000000	-0.000000	0.000000	-0.000000	-0.000000	0.000000	0.000000	-0.000000	-0.000000	-0.000000	0.000000	0.000000	0.000000	0.000000	0.000000	-0.000000	0.000000	0.000000	0.000000	0.000000	0.000000	0.000000	-0.000000	-0.000000	-0.000000	0.000000	-0.000000	-0.000000	-0.000000	-0.000000	-0.000000	-0.000000	0.000000	-0.000000	-0.000000	-0.000000	0.000000	0.000000	0.000000	-0.000000	-0.000000	0.000000	0.000000	0.000000	0.000000	0.000000	0.000000	-0.000000	-0.000000	-0.000000	0.000000	-0.000000	0.000000	-0.000000	0.000000	-0.000000	0.000000	-0.000000	0.000000	-0.000000	-0.000000	0.000000	
SCALARS FSUM.z float
LOOKUP_TABLE default
0.000000	0.000000	0.000000	0.000000	0.000000	0.000000	0.000000	0.000000	0.000000	0.000000	0.000000	0.000000	0.000000	0.000000	0.000000	0.000000	0.000000	0.000000	0.000000	0.000000	0.000000	0.000000	0.000000	0.000000	0.000000	0.000000	0.000000	0.000000	0.000000	0.000000	0.000000	0.000000	0.000000	0.000000	0.000000	0.000000	0.000000	0.000000	0.000000	0.000000	0.000000	0.000000	0.000000	0.000000	0.000000	0.000000	0.000000	0.000000	0.000000	0.000000	0.000000	0.000000	0.000000	0.000000	0.000000	0.000000	0.000000	0.000000	0.000000	0.000000	0.000000	0.000000	0.000000	0.000000	0.000000	0.000000	0.000000	0.000000	0.000000	0.000000	0.000000	0.000000	0.000000	0.000000	0.000000	0.000000	0.000000	0.000000	0.000000	0.000000	0.000000	0.000000	0.000000	0.000000	0.000000	0.000000	0.000000	0.000000	0.000000	0.000000	0.000000	0.000000	0.000000	0.000000	0.000000	0.000000	0.000000	0.000000	0.000000	0.000000	0.000000	0.000000	0.000000	0.000000	0.000000	0.000000	0.000000	0.000000	0.000000	0.000000	0.000000	0.000000	0.000000	0.000000	0.000000	0.000000	0.000000	0.000000	0.000000	0.000000	0.000000	0.000000	0.000000	0.000000	0.000000	0.000000	0.000000	0.000000	0.000000	0.000000	0.000000	0.000000	0.000000	0.000000	0.000000	0.000000	0.000000	0.000000	0.000000	0.000000	0.000000	0.000000	0.000000	0.000000	0.000000	0.000000	0.000000	0.000000	0.000000	0.000000	0.000000	0.000000	0.000000	0.000000	0.000000	0.000000	0.000000	0.000000	0.000000	0.000000	0.000000	0.000000	0.000000	0.000000	0.000000	0.000000	0.000000	0.000000	0.000000	0.000000	0.000000	0.000000	0.000000	0.000000	0.000000	0.000000	0.000000	0.000000	0.000000	0.000000	0.000000	0.000000	0.000000	0.000000	0.000000	0.000000	0.000000	0.000000	0.000000	0.000000	0.000000	0.000000	0.000000	0.000000	0.000000	0.000000	0.000000	0.000000	0.000000	0.000000	0.000000	0.000000	0.000000	0.000000	0.000000	0.000000	0.000000	0.000000	0.000000	0.000000	0.000000	0.000000	0.000000	0.000000	0.000000	0.000000	0.000000	0.000000	0.000000	0.000000	0.000000	0.000000	0.000000	0.000000	0.000000	0.000000	0.000000	0.000000	0.000000	0.000000	0.000000	0.000000	0.000000	0.000000	0.000000	0.000000	0.000000	0.000000	0.000000	0.000000	0.000000	0.000000	0.000000	0.000000	0.000000	0.000000	0.000000	0.000000	0.000000	0.000000	0.000000	0.000000	0.000000	0.000000	0.000000	0.000000	0.000000	0.000000	0.000000	0.000000	0.000000	0.000000	0.000000	0.000000	0.000000	0.000000	0.000000	0.000000	0.000000	0.000000	0.000000	0.000000	0.000000	0.000000	0.000000	0.000000	0.000000	0.000000	0.000000	0.000000	0.000000	0.000000	0.000000	0.000000	0.000000	0.000000	0.000000	0.000000	0.000000	0.000000	0.000000	0.000000	0.000000	0.000000	0.000000	0.000000	0.000000	0.000000	0.000000	0.000000	0.000000	0.000000	0.000000	0.000000	0.000000	0.000000	0.000000	0.000000	0.000000	0.000000	0.000000	0.000000	0.000000	0.000000	0.000000	0.000000	0.000000	0.000000	0.000000	0.000000	0.000000	0.000000	0.000000	0.000000	0.000000	0.000000	0.000000	0.000000	0.000000	0.000000	0.000000	0.000000	0.000000	0.000000	0.000000	0.000000	0.000000	0.000000	0.000000	0.000000	0.000000	0.000000	0.000000	0.000000	0.000000	0.000000	0.000000	0.000000	0.000000	0.000000	0.000000	0.000000	0.000000	0.000000	0.000000	0.000000	0.000000	0.000000	0.000000	0.000000	0.000000	0.000000	0.000000	0.000000	0.000000	0.000000	0.000000	0.000000	0.000000	0.000000	0.000000	0.000000	0.000000	0.000000	0.000000	0.000000	0.000000	0.000000	0.000000	0.000000	0.000000	0.000000	0.000000	0.000000	0.000000	0.000000	0.000000	0.000000	0.000000	0.000000	0.000000	0.000000	0.000000	0.000000	0.000000	0.000000	0.000000	0.000000	0.000000	0.000000	0.000000	0.000000	0.000000	0.000000	0.000000	0.000000	0.000000	0.000000	0.000000	0.000000	0.000000	0.000000	0.000000	0.000000	0.000000	0.000000	0.000000	0.000000	0.000000	0.000000	0.000000	0.000000	0.000000	0.000000	0.000000	0.000000	0.000000	0.000000	0.000000	0.000000	0.000000	0.000000	0.000000	0.000000	0.000000	0.000000	0.000000	0.000000	0.000000	0.000000	0.000000	0.000000	0.000000	0.000000	0.000000	0.000000	0.000000	0.000000	0.000000	0.000000	0.000000	0.000000	0.000000	0.000000	0.000000	0.000000	0.000000	0.000000	0.000000	0.000000	0.000000	0.000000	0.000000	0.000000	0.000000	0.000000	0.000000	0.000000	0.000000	0.000000	0.000000	0.000000	0.000000	0.000000	0.000000	0.000000	0.000000	0.000000	0.000000	0.000000	0.000000	0.000000	0.000000	0.000000	0.000000	0.000000	0.000000	0.000000	0.000000	0.000000	0.000000	0.000000	0.000000	0.000000	0.000000	0.000000	0.000000	0.000000	0.000000	0.000000	0.000000	0.000000	0.000000	0.000000	0.000000	0.000000	0.000000	0.000000	0.000000	0.000000	0.000000	0.000000	0.000000	0.000000	0.000000	0.000000	0.000000	0.000000	0.000000	0.000000	0.000000	0.000000	0.000000	0.000000	0.000000	0.000000	0.000000	0.000000	0.000000	0.000000	0.000000	0.000000	0.000000	0.000000	0.000000	0.000000	0.000000	0.000000	0.000000	0.000000	0.000000	0.000000	0.000000	0.000000	0.000000	0.000000	0.000000	0.000000	0.000000	0.000000	0.000000	0.000000	0.000000	0.000000	0.000000	0.000000	0.000000	0.000000	0.000000	0.000000	0.000000	0.000000	0.000000	0.000000	0.000000	0.000000	0.000000	0.000000	0.000000	0.000000	0.000000	0.000000	0.000000	0.000000	0.000000	0.000000	0.000000	0.000000	0.000000	0.000000	0.000000	0.000000	0.000000	0.000000	0.000000	0.000000	0.000000	0.000000	0.000000	0.000000	0.000000	0.000000	0.000000	0.000000	0.000000	0.000000	0.000000	0.000000	0.000000	0.000000	0.000000	0.000000	0.000000	0.000000	0.000000	0.000000	0.000000	0.000000	0.000000	0.000000	0.000000	0.000000	0.000000	0.000000	0.000000	0.000000	0.000000	0.000000	0.000000	0.000000	0.000000	0.000000	0.000000	0.000000	0.000000	0.000000	0.000000	0.000000	0.000000	0.000000	0.000000	0.000000	0.000000	0.000000	0.000000	0.000000	0.000000	0.000000	0.000000	0.000000	0.000000	0.000000	0.000000	0.000000	0.000000	0.000000	0.000000	0.000000	0.000000	0.000000	0.000000	0.000000	0.000000	0.000000	0.000000	0.000000	0.000000	0.000000	0.000000	0.000000	0.000000	0.000000	0.000000	0.000000	0.000000	0.000000	0.000000	0.000000	0.000000	0.000000	0.000000	0.000000	0.000000	0.000000	0.000000	0.000000	0.000000	0.000000	0.000000	0.000000	0.000000	0.000000	0.000000	0.000000	0.000000	0.000000	0.000000	0.000000	0.000000	0.000000	0.000000	0.000000	0.000000	0.000000	0.000000	0.000000	0.000000	0.000000	0.000000	0.000000	0.000000	0.000000	0.000000	0.000000	0.000000	0.000000	0.000000	0.000000	0.000000	0.000000	0.000000	0.000000	0.000000	0.000000	0.000000	0.000000	0.000000	0.000000	0.000000	0.000000	0.000000	0.000000	0.000000	0.000000	0.000000	0.000000	0.000000	0.000000	0.000000	0.000000	0.000000	0.000000	0.000000	0.000000	0.000000	0.000000	0.000000	0.000000	0.000000	0.000000	0.000000	0.000000	0.000000	0.000000	0.000000	0.000000	0.000000	0.000000	0.000000	0.000000	0.000000	0.000000	0.000000	0.000000	0.000000	0.000000	0.000000	0.000000	0.000000	0.000000	0.000000	0.000000	0.000000	0.000000	0.000000	0.000000	0.000000	0.000000	0.000000	0.000000	0.000000	0.000000	0.000000	0.000000	0.000000	0.000000	0.000000	0.000000	0.000000	0.000000	0.000000	0.000000	0.000000	0.000000	0.000000	0.000000	0.000000	0.000000	0.000000	0.000000	0.000000	0.000000	0.000000	0.000000	0.000000	0.000000	0.000000	0.000000	0.000000	0.000000	0.000000	0.000000	0.000000	0.000000	0.000000	0.000000	0.000000	0.000000	0.000000	0.000000	0.000000	0.000000	0.000000	0.000000	0.000000	0.000000	0.000000	0.000000	0.000000	0.000000	0.000000	0.000000	0.000000	0.000000	0.000000	0.000000	0.000000	0.000000	0.000000	0.000000	0.000000	0.000000	0.000000	0.000000	0.000000	0.000000	0.000000	0.000000	0.000000	0.000000	0.000000	0.000000	0.000000	0.000000	0.000000	0.000000	0.000000	0.000000	0.000000	0.000000	0.000000	0.000000	0.000000	0.000000	0.000000	0.000000	0.000000	0.000000	0.000000	0.000000	0.000000	0.000000	0.000000	0.000000	0.000000	0.000000	0.000000	0.000000	0.000000	0.000000	0.000000	0.000000	0.000000	0.000000	0.000000	0.000000	0.000000	0.000000	0.000000	0.000000	0.000000	0.000000	0.000000	0.000000	0.000000	0.000000	0.000000	0.000000	0.000000	0.000000	0.000000	0.000000	0.000000	0.000000	0.000000	0.000000	0.000000	0.000000	0.000000	0.000000	0.000000	0.000000	0.000000	0.000000	0.000000	0.000000	0.000000	0.000000	0.000000	0.000000	0.000000	0.000000	0.000000	0.000000	0.000000	0.000000	0.000000	0.000000	0.000000	0.000000	0.000000	0.000000	0.000000	0.000000	0.000000	0.000000	0.000000	0.000000	0.000000	0.000000	0.000000	0.000000	0.000000	0.000000	0.000000	0.000000	0.000000	0.000000	0.000000	0.000000	0.000000	0.000000	0.000000	0.000000	0.000000	0.000000	0.000000	0.000000	0.000000	0.000000	0.000000	0.000000	0.000000	0.000000	0.000000	0.000000	0.000000	0.000000	0.000000	0.000000	0.000000	0.000000	0.000000	0.000000	0.000000	0.000000	0.000000	0.000000	0.000000	0.000000	0.000000	0.000000	0.000000	0.000000	0.000000	0.000000	0.000000	0.000000	0.000000	0.000000	0.000000	0.000000	0.000000	0.000000	0.000000	0.000000	0.000000	0.000000	0.000000	0.000000	0.000000	0.000000	0.000000	0.000000	0.000000	0.000000	0.000000	0.000000	0.000000	0.000000	0.000000	0.000000	0.000000	0.000000	0.000000	0.000000	0.000000	0.000000	0.000000	0.000000	0.000000	0.000000	0.000000	0.000000	0.000000	0.000000	0.000000	0.000000	0.000000	0.000000	0.000000	0.000000	
SCALARS MSUM.x float
LOOKUP_TABLE default
0.000000	0.000000	0.000000	0.000000	0.000000	0.000000	0.000000	0.000000	0.000000	0.000000	0.000000	0.000000	0.000000	0.000000	0.000000	0.000000	0.000000	0.000000	0.000000	0.000000	0.000000	0.000000	0.000000	0.000000	0.000000	0.000000	0.000000	0.000000	0.000000	0.000000	0.000000	0.000000	0.000000	0.000000	0.000000	0.000000	0.000000	0.000000	0.000000	0.000000	0.000000	0.000000	0.000000	0.000000	0.000000	0.000000	0.000000	0.000000	0.000000	0.000000	0.000000	0.000000	0.000000	0.000000	0.000000	0.000000	0.000000	0.000000	0.000000	0.000000	0.000000	0.000000	0.000000	0.000000	0.000000	0.000000	0.000000	0.000000	0.000000	0.000000	0.000000	0.000000	0.000000	0.000000	0.000000	0.000000	0.000000	0.000000	0.000000	0.000000	0.000000	0.000000	0.000000	0.000000	0.000000	0.000000	0.000000	0.000000	0.000000	0.000000	0.000000	0.000000	0.000000	0.000000	0.000000	0.000000	0.000000	0.000000	0.000000	0.000000	0.000000	0.000000	0.000000	0.000000	0.000000	0.000000	0.000000	0.000000	0.000000	0.000000	0.000000	0.000000	0.000000	0.000000	0.000000	0.000000	0.000000	0.000000	0.000000	0.000000	0.000000	0.000000	0.000000	0.000000	0.000000	0.000000	0.000000	0.000000	0.000000	0.000000	0.000000	0.000000	0.000000	0.000000	0.000000	0.000000	0.000000	0.000000	0.000000	0.000000	0.000000	0.000000	0.000000	0.000000	0.000000	0.000000	0.000000	0.000000	0.000000	0.000000	0.000000	0.000000	0.000000	0.000000	0.000000	0.000000	0.000000	0.000000	0.000000	0.000000	0.000000	0.000000	0.000000	0.000000	0.000000	0.000000	0.000000	0.000000	0.000000	0.000000	0.000000	0.000000	0.000000	0.000000	0.000000	0.000000	0.000000	0.000000	0.000000	0.000000	0.000000	0.000000	0.000000	0.000000	0.000000	0.000000	0.000000	0.000000	0.000000	0.000000	0.000000	0.000000	0.000000	0.000000	0.000000	0.000000	0.000000	0.000000	0.000000	0.000000	0.000000	0.000000	0.000000	0.000000	0.000000	0.000000	0.000000	0.000000	0.000000	0.000000	0.000000	0.000000	0.000000	0.000000	0.000000	0.000000	0.000000	0.000000	0.000000	0.000000	0.000000	0.000000	0.000000	0.000000	0.000000	0.000000	0.000000	0.000000	0.000000	0.000000	0.000000	0.000000	0.000000	0.000000	0.000000	0.000000	0.000000	0.000000	0.000000	0.000000	0.000000	0.000000	0.000000	0.000000	0.000000	0.000000	0.000000	0.000000	0.000000	0.000000	0.000000	0.000000	0.000000	0.000000	0.000000	0.000000	0.000000	0.000000	0.000000	0.000000	0.000000	0.000000	0.000000	0.000000	0.000000	0.000000	0.000000	0.000000	0.000000	0.000000	0.000000	0.000000	0.000000	0.000000	0.000000	0.000000	0.000000	0.000000	0.000000	0.000000	0.000000	0.000000	0.000000	0.000000	0.000000	0.000000	0.000000	0.000000	0.000000	0.000000	0.000000	0.000000	0.000000	0.000000	0.000000	0.000000	0.000000	0.000000	0.000000	0.000000	0.000000	0.000000	0.000000	0.000000	0.000000	0.000000	0.000000	0.000000	0.000000	0.000000	0.000000	0.000000	0.000000	0.000000	0.000000	0.000000	0.000000	0.000000	0.000000	0.000000	0.000000	0.000000	0.000000	0.000000	0.000000	0.000000	0.000000	0.000000	0.000000	0.000000	0.000000	0.000000	0.000000	0.000000	0.000000	0.000000	0.000000	0.000000	0.000000	0.000000	0.000000	0.000000	0.000000	0.000000	0.000000	0.000000	0.000000	0.000000	0.000000	0.000000	0.000000	0.000000	0.000000	0.000000	0.000000	0.000000	0.000000	0.000000	0.000000	0.000000	0.000000	0.000000	0.000000	0.000000	0.000000	0.000000	0.000000	0.000000	0.000000	0.000000	0.000000	0.000000	0.000000	0.000000	0.000000	0.000000	0.000000	0.000000	0.000000	0.000000	0.000000	0.000000	0.000000	0.000000	0.000000	0.000000	0.000000	0.000000	0.000000	0.000000	0.000000	0.000000	0.000000	0.000000	0.000000	0.000000	0.000000	0.000000	0.000000	0.000000	0.000000	0.000000	0.000000	0.000000	0.000000	0.000000	0.000000	0.000000	0.000000	0.000000	0.000000	0.000000	0.000000	0.000000	0.000000	0.000000	0.000000	0.000000	0.000000	0.000000	0.000000	0.000000	0.000000	0.000000	0.000000	0.000000	0.000000	0.000000	0.000000	0.000000	0.000000	0.000000	0.000000	0.000000	0.000000	0.000000	0.000000	0.000000	0.000000	0.000000	0.000000	0.000000	0.000000	0.000000	0.000000	0.000000	0.000000	0.000000	0.000000	0.000000	0.000000	0.000000	0.000000	0.000000	0.000000	0.000000	0.000000	0.000000	0.000000	0.000000	0.000000	0.000000	0.000000	0.000000	0.000000	0.000000	0.000000	0.000000	0.000000	0.000000	0.000000	0.000000	0.000000	0.000000	0.000000	0.000000	0.000000	0.000000	0.000000	0.000000	0.000000	0.000000	0.000000	0.000000	0.000000	0.000000	0.000000	0.000000	0.000000	0.000000	0.000000	0.000000	0.000000	0.000000	0.000000	0.000000	0.000000	0.000000	0.000000	0.000000	0.000000	0.000000	0.000000	0.000000	0.000000	0.000000	0.000000	0.000000	0.000000	0.000000	0.000000	0.000000	0.000000	0.000000	0.000000	0.000000	0.000000	0.000000	0.000000	0.000000	0.000000	0.000000	0.000000	0.000000	0.000000	0.000000	0.000000	0.000000	0.000000	0.000000	0.000000	0.000000	0.000000	0.000000	0.000000	0.000000	0.000000	0.000000	0.000000	0.000000	0.000000	0.000000	0.000000	0.000000	0.000000	0.000000	0.000000	0.000000	0.000000	0.000000	0.000000	0.000000	0.000000	0.000000	0.000000	0.000000	0.000000	0.000000	0.000000	0.000000	0.000000	0.000000	0.000000	0.000000	0.000000	0.000000	0.000000	0.000000	0.000000	0.000000	0.000000	0.000000	0.000000	0.000000	0.000000	0.000000	0.000000	0.000000	0.000000	0.000000	0.000000	0.000000	0.000000	0.000000	0.000000	0.000000	0.000000	0.000000	0.000000	0.000000	0.000000	0.000000	0.000000	0.000000	0.000000	0.000000	0.000000	0.000000	0.000000	0.000000	0.000000	0.000000	0.000000	0.000000	0.000000	0.000000	0.000000	0.000000	0.000000	0.000000	0.000000	0.000000	0.000000	0.000000	0.000000	0.000000	0.000000	0.000000	0.000000	0.000000	0.000000	0.000000	0.000000	0.000000	0.000000	0.000000	0.000000	0.000000	0.000000	0.000000	0.000000	0.000000	0.000000	0.000000	0.000000	0.000000	0.000000	0.000000	0.000000	0.000000	0.000000	0.000000	0.000000	0.000000	0.000000	0.000000	0.000000	0.000000	0.000000	0.000000	0.000000	0.000000	0.000000	0.000000	0.000000	0.000000	0.000000	0.000000	0.000000	0.000000	0.000000	0.000000	0.000000	0.000000	0.000000	0.000000	0.000000	0.000000	0.000000	0.000000	0.000000	0.000000	0.000000	0.000000	0.000000	0.000000	0.000000	0.000000	0.000000	0.000000	0.000000	0.000000	0.000000	0.000000	0.000000	0.000000	0.000000	0.000000	0.000000	0.000000	0.000000	0.000000	0.000000	0.000000	0.000000	0.000000	0.000000	0.000000	0.000000	0.000000	0.000000	0.000000	0.000000	0.000000	0.000000	0.000000	0.000000	0.000000	0.000000	0.000000	0.000000	0.000000	0.000000	0.000000	0.000000	0.000000	0.000000	0.000000	0.000000	0.000000	0.000000	0.000000	0.000000	0.000000	0.000000	0.000000	0.000000	0.000000	0.000000	0.000000	0.000000	0.000000	0.000000	0.000000	0.000000	0.000000	0.000000	0.000000	0.000000	0.000000	0.000000	0.000000	0.000000	0.000000	0.000000	0.000000	0.000000	0.000000	0.000000	0.000000	0.000000	0.000000	0.000000	0.000000	0.000000	0.000000	0.000000	0.000000	0.000000	0.000000	0.000000	0.000000	0.000000	0.000000	0.000000	0.000000	0.000000	0.000000	0.000000	0.000000	0.000000	0.000000	0.000000	0.000000	0.000000	0.000000	0.000000	0.000000	0.000000	0.000000	0.000000	0.000000	0.000000	0.000000	0.000000	0.000000	0.000000	0.000000	0.000000	0.000000	0.000000	0.000000	0.000000	0.000000	0.000000	0.000000	0.000000	0.000000	0.000000	0.000000	0.000000	0.000000	0.000000	0.000000	0.000000	0.000000	0.000000	0.000000	0.000000	0.000000	0.000000	0.000000	0.000000	0.000000	0.000000	0.000000	0.000000	0.000000	0.000000	0.000000	0.000000	0.000000	0.000000	0.000000	0.000000	0.000000	0.000000	0.000000	0.000000	0.000000	0.000000	0.000000	0.000000	0.000000	0.000000	0.000000	0.000000	0.000000	0.000000	0.000000	0.000000	0.000000	0.000000	0.000000	0.000000	0.000000	0.000000	0.000000	0.000000	0.000000	0.000000	0.000000	0.000000	0.000000	0.000000	0.000000	0.000000	0.000000	0.000000	0.000000	0.000000	0.000000	0.000000	0.000000	0.000000	0.000000	0.000000	0.000000	0.000000	0.000000	0.000000	0.000000	0.000000	0.000000	0.000000	0.000000	0.000000	0.000000	0.000000	0.000000	0.000000	0.000000	0.000000	0.000000	0.000000	0.000000	0.000000	0.000000	0.000000	0.000000	0.000000	0.000000	0.000000	0.000000	0.000000	0.000000	0.000000	0.000000	0.000000	0.000000	0.000000	0.000000	0.000000	0.000000	0.000000	0.000000	0.000000	0.000000	0.000000	0.000000	0.000000	0.000000	0.000000	0.000000	0.000000	0.000000	0.000000	0.000000	0.000000	0.000000	0.000000	0.000000	0.000000	0.000000	0.000000	0.000000	0.000000	0.000000	0.000000	0.000000	0.000000	0.000000	0.000000	0.000000	0.000000	0.000000	0.000000	0.000000	0.000000	0.000000	0.000000	0.000000	0.000000	0.000000	0.000000	0.000000	0.000000	0.000000	0.000000	0.000000	0.000000	0.000000	0.000000	0.000000	0.000000	0.000000	0.000000	0.000000	0.000000	0.000000	0.000000	0.000000	0.000000	0.000000	0.000000	0.000000	0.000000	0.000000	0.000000	0.000000	0.000000	0.000000	0.000000	0.000000	0.000000	0.000000	0.000000	0.000000	0.000000	0.000000	0.000000	0.000000	0.000000	0.000000	0.000000	0.000000	0.000000	0.000000	0.000000	0.000000	0.000000	0.000000	0.000000	0.000000	0.000000	0.000000	0.000000	0.000000	0.000000	0.000000	0.000000	0.000000	0.000000	0.000000	0.000000	0.000000	0.000000	0.000000	0.000000	0.000000	0.000000	0.000000	0.000000	0.000000	0.000000	0.000000	0.000000	0.000000	0.000000	0.000000	0.000000	0.000000	
SCALARS STYPE float
LOOKUP_TABLE default
3.000000	3.000000	3.000000	3.000000	3.000000	3.000000	3.000000	3.000000	3.000000	3.000000	3.000000	3.000000	3.000000	3.000000	3.000000	3.000000	3.000000	3.000000	3.000000	3.000000	3.000000	3.000000	3.000000	3.000000	3.000000	3.000000	3.000000	3.000000	3.000000	3.000000	3.000000	3.000000	3.000000	3.000000	3.000000	3.000000	3.000000	3.000000	3.000000	3.000000	3.000000	3.000000	3.000000	3.000000	3.000000	3.000000	3.000000	3.000000	3.000000	3.000000	3.000000	3.000000	3.000000	3.000000	3.000000	3.000000	3.000000	3.000000	3.000000	3.000000	3.000000	3.000000	3.000000	3.000000	3.000000	3.000000	3.000000	3.000000	3.000000	3.000000	3.000000	3.000000	3.000000	3.000000	3.000000	3.000000	3.000000	3.000000	3.000000	3.000000	3.000000	3.000000	3.000000	3.000000	3.000000	3.000000	3.000000	3.000000	3.000000	3.000000	3.000000	3.000000	3.000000	3.000000	3.000000	3.000000	3.000000	3.000000	3.000000	3.000000	3.000000	3.000000	3.000000	3.000000	3.000000	3.000000	3.000000	3.000000	3.000000	3.000000	3.000000	3.000000	3.000000	3.000000	3.000000	3.000000	3.000000	3.000000	3.000000	3.000000	3.000000	3.000000	3.000000	3.000000	3.000000	3.000000	3.000000	3.000000	3.000000	3.000000	3.000000	3.000000	3.000000	3.000000	3.000000	3.000000	3.000000	3.000000	3.000000	3.000000	3.000000	3.000000	3.000000	3.000000	3.000000	3.000000	3.000000	3.000000	3.000000	3.000000	3.000000	3.000000	3.000000	3.000000	3.000000	3.000000	3.000000	3.000000	3.000000	3.000000	3.000000	3.000000	3.000000	3.000000	3.000000	3.000000	3.000000	3.000000	3.000000	3.000000	3.000000	3.000000	3.000000	3.000000	3.000000	3.000000	3.000000	3.000000	3.000000	3.000000	3.000000	3.000000	3.000000	3.000000	3.000000	3.000000	3.000000	3.000000	3.000000	3.000000	3.000000	3.000000	3.000000	3.000000	3.000000	3.000000	3.000000	3.000000	3.000000	3.000000	3.000000	3.000000	3.000000	3.000000	3.000000	3.000000	3.000000	3.000000	3.000000	3.000000	3.000000	3.000000	3.000000	3.000000	3.000000	3.000000	3.000000	3.000000	3.000000	3.000000	3.000000	3.000000	1.000000	1.000000	1.000000	1.000000	1.000000	1.000000	1.000000	1.000000	1.000000	1.000000	1.000000	1.000000	1.000000	1.000000	1.000000	1.000000	1.000000	1.000000	1.000000	1.000000	1.000000	1.000000	1.000000	1.000000	1.000000	1.000000	1.000000	1.000000	1.000000	1.000000	1.000000	1.000000	1.000000	1.000000	1.000000	1.000000	1.000000	1.000000	1.000000	1.000000	1.000000	1.000000	1.000000	1.000000	1.000000	1.000000	1.000000	1.000000	1.000000	1.000000	1.000000	1.000000	1.000000	1.000000	1.000000	1.000000	1.000000	1.000000	1.000000	1.000000	1.000000	1.000000	1.000000	1.000000	1.000000	1.000000	1.000000	1.000000	1.000000	1.000000	1.000000	1.000000	1.000000	1.000000	1.000000	1.000000	1.000000	1.000000	1.000000	1.000000	1.000000	1.000000	1.000000	1.000000	1.000000	1.000000	1.000000	1.000000	1.000000	1.000000	1.000000	1.000000	1.000000	1.000000	1.000000	1.000000	1.000000	1.000000	1.000000	1.000000	2.000000	2.000000	2.000000	2.000000	2.000000	2.000000	2.000000	2.000000	2.000000	2.000000	2.000000	2.000000	2.000000	2.000000	2.000000	2.000000	2.000000	2.000000	2.000000	2.000000	2.000000	2.000000	2.000000	2.000000	2.000000	2.000000	2.000000	2.000000	2.000000	2.000000	2.000000	2.000000	2.000000	2.000000	2.000000	2.000000	2.000000	2.000000	2.000000	2.000000	2.000000	2.000000	2.000000	2.000000	2.000000	2.000000	2.000000	2.000000	2.000000	2.000000	2.000000	2.000000	2.000000	2.000000	2.000000	2.000000	2.000000	2.000000	2.000000	2.000000	2.000000	2.000000	2.000000	2.000000	2.000000	2.000000	2.000000	2.000000	2.000000	2.000000	2.000000	2.000000	2.000000	2.000000	2.000000	2.000000	2.000000	2.000000	2.000000	2.000000	2.000000	2.000000	2.000000	2.000000	2.000000	2.000000	2.000000	2.000000	2.000000	2.000000	2.000000	2.000000	2.000000	2.000000	2.000000	2.000000	2.000000	2.000000	2.000000	2.000000	1.000000	1.000000	1.000000	1.000000	1.000000	1.000000	1.000000	1.000000	1.000000	1.000000	1.000000	1.000000	1.000000	1.000000	1.000000	1.000000	1.000000	1.000000	1.000000	1.000000	1.000000	1.000000	1.000000	1.000000	1.000000	1.000000	1.000000	1.000000	1.000000	1.000000	1.000000	1.000000	1.000000	1.000000	1.000000	1.000000	1.000000	1.000000	1.000000	1.000000	1.000000	1.000000	1.000000	1.000000	1.000000	1.000000	1.000000	1.000000	1.000000	1.000000	1.000000	1.000000	1.000000	1.000000	1.000000	1.000000	1.000000	1.000000	1.000000	1.000000	1.000000	1.000000	1.000000	1.000000	1.000000	1.000000	1.000000	1.000000	1.000000	1.000000	1.000000	1.000000	1.000000	1.000000	1.000000	1.000000	1.000000	1.000000	1.000000	1.000000	1.000000	1.000000	1.000000	1.000000	1.000000	1.000000	1.000000	1.000000	1.000000	1.000000	1.000000	1.000000	1.000000	1.000000	1.000000	1.000000	1.000000	1.000000	1.000000	1.000000	2.000000	2.000000	2.000000	2.000000	2.000000	2.000000	2.000000	2.000000	2.000000	2.000000	2.000000	2.000000	2.000000	2.000000	2.000000	2.000000	2.000000	2.000000	2.000000	2.000000	2.000000	2.000000	2.000000	2.000000	2.000000	2.000000	2.000000	2.000000	2.000000	2.000000	2.000000	2.000000	2.000000	2.000000	2.000000	2.000000	2.000000	2.000000	2.000000	2.000000	2.000000	2.000000	2.000000	2.000000	2.000000	2.000000	2.000000	2.000000	2.000000	2.000000	2.000000	2.000000	2.000000	2.000000	2.000000	2.000000	2.000000	2.000000	2.000000	2.000000	2.000000	2.000000	2.000000	2.000000	2.000000	2.000000	2.000000	2.000000	2.000000	2.000000	2.000000	2.000000	2.000000	2.000000	2.000000	2.000000	2.000000	2.000000	2.000000	2.000000	2.000000	2.000000	2.000000	2.000000	2.000000	2.000000	2.000000	2.000000	2.000000	2.000000	2.000000	2.000000	2.000000	2.000000	2.000000	2.000000	2.000000	2.000000	2.000000	2.000000	1.000000	1.000000	1.000000	1.000000	1.000000	1.000000	1.000000	1.000000	1.000000	1.000000	1.000000	1.000000	1.000000	1.000000	1.000000	1.000000	1.000000	1.000000	1.000000	1.000000	1.000000	1.000000	1.000000	1.000000	1.000000	1.000000	1.000000	1.000000	1.000000	1.000000	1.000000	1.000000	1.000000	1.000000	1.000000	1.000000	1.000000	1.000000	1.000000	1.000000	1.000000	1.000000	1.000000	1.000000	1.000000	1.000000	1.000000	1.000000	1.000000	1.000000	1.000000	1.000000	1.000000	1.000000	1.000000	1.000000	1.000000	1.000000	1.000000	1.000000	1.000000	1.000000	1.000000	1.000000	1.000000	1.000000	1.000000	1.000000	1.000000	1.000000	1.000000	1.000000	1.000000	1.000000	1.000000	1.000000	1.000000	1.000000	1.000000	1.000000	1.000000	1.000000	1.000000	1.000000	1.000000	1.000000	1.000000	1.000000	1.000000	1.000000	1.000000	1.000000	1.000000	1.000000	1.000000	1.000000	1.000000	1.000000	1.000000	1.000000	2.000000	2.000000	2.000000	2.000000	2.000000	2.000000	2.000000	2.000000	2.000000	2.000000	2.000000	2.000000	2.000000	2.000000	2.000000	2.000000	2.000000	2.000000	2.000000	2.000000	2.000000	2.000000	2.000000	2.000000	2.000000	2.000000	2.000000	2.000000	2.000000	2.000000	2.000000	2.000000	2.000000	2.000000	2.000000	2.000000	2.000000	2.000000	2.000000	2.000000	2.000000	2.000000	2.000000	2.000000	2.000000	2.000000	2.000000	2.000000	2.000000	2.000000	2.000000	2.000000	2.000000	2.000000	2.000000	2.000000	2.000000	2.000000	2.000000	2.000000	2.000000	2.000000	2.000000	2.000000	2.000000	2.000000	2.000000	2.000000	2.000000	2.000000	2.000000	2.000000	2.000000	2.000000	2.000000	2.000000	2.000000	2.000000	2.000000	2.000000	2.000000	2.000000	2.000000	2.000000	2.000000	2.000000	2.000000	2.000000	2.000000	2.000000	2.000000	2.000000	2.000000	2.000000	2.000000	2.000000	2.000000	2.000000	2.000000	2.000000	1.000000	1.000000	1.000000	1.000000	1.000000	1.000000	1.000000	1.000000	1.000000	1.000000	1.000000	1.000000	1.000000	1.000000	1.000000	1.000000	1.000000	1.000000	1.000000	1.000000	1.000000	1.000000	1.000000	1.000000	1.000000	1.000000	1.000000	1.000000	1.000000	1.000000	1.000000	1.000000	1.000000	1.000000	1.000000	1.000000	1.000000	1.000000	1.000000	1.000000	1.000000	1.000000	1.000000	1.000000	1.000000	1.000000	1.000000	1.000000	1.000000	1.000000	1.000000	1.000000	1.000000	1.000000	1.000000	1.000000	1.000000	1.000000	1.000000	1.000000	1.000000	1.000000	1.000000	1.000000	1.000000	1.000000	1.000000	1.000000	1.000000	1.000000	1.000000	1.000000	1.000000	1.000000	1.000000	1.000000	1.000000	1.000000	1.000000	1.000000	1.000000	1.000000	1.000000	1.000000	1.000000	1.000000	1.000000	1.000000	1.000000	1.000000	1.000000	1.000000	1.000000	1.000000	1.000000	1.000000	1.000000	1.000000	1.000000	1.000000	2.000000	2.000000	2.000000	2.000000	2.000000	2.000000	2.000000	2.000000	2.000000	2.000000	2.000000	2.000000	2.000000	2.000000	2.000000	2.000000	2.000000	2.000000	2.000000	2.000000	2.000000	2.000000	2.000000	2.000000	2.000000	2.000000	2.000000	2.000000	2.000000	2.000000	2.000000	2.000000	2.000000	2.000000	2.000000	2.000000	2.000000	2.000000	2.000000	2.000000	2.000000	2.000000	2.000000	2.000000	2.000000	2.000000	2.000000	2.000000	2.000000	2.000000	2.000000	2.000000	2.000000	2.000000	2.000000	2.000000	2.000000	2.000000	2.000000	2.000000	2.000000	2.000000	2.000000	2.000000	2.000000	2.000000	2.000000	2.000000	2.000000	2.000000	2.000000	2.000000	2.000000	2.000000	2.000000	2.000000	2.000000	2.000000	2.000000	2.000000	2.000000	2.000000	2.000000	2.000000	2.000000	2.000000	2.000000	2.000000	2.000000	2.000000	2.000000	2.000000	2.000000	2.000000	2.000000	2.000000	2.000000	2.000000	2.000000	2.000000	
SCALARS MTYPE float
LOOKUP_TABLE default
3.000000	3.000000	3.000000	3.000000	3.000000	3.000000	3.000000	3.000000	3.000000	3.000000	3.000000	3.000000	3.000000	3.000000	3.000000	3.000000	3.000000	3.000000	3.000000	3.000000	3.000000	3.000000	3.000000	3.000000	3.000000	3.000000	3.000000	3.000000	3.000000	3.000000	3.000000	3.000000	3.000000	3.000000	3.000000	3.000000	3.000000	3.000000	3.000000	3.000000	3.000000	3.000000	3.000000	3.000000	3.000000	3.000000	3.000000	3.000000	3.000000	3.000000	3.000000	3.000000	3.000000	3.000000	3.000000	3.000000	3.000000	3.000000	3.000000	3.000000	3.000000	3.000000	3.000000	3.000000	3.000000	3.000000	3.000000	3.000000	3.000000	3.000000	3.000000	3.000000	3.000000	3.000000	3.000000	3.000000	3.000000	3.000000	3.000000	3.000000	3.000000	3.000000	3.000000	3.000000	3.000000	3.000000	3.000000	3.000000	3.000000	3.000000	3.000000	3.000000	3.000000	3.000000	3.000000	3.000000	3.000000	3.000000	3.000000	3.000000	3.000000	3.000000	3.000000	3.000000	3.000000	3.000000	3.000000	3.000000	3.000000	3.000000	3.000000	3.000000	3.000000	3.000000	3.000000	3.000000	3.000000	3.000000	3.000000	3.000000	3.000000	3.000000	3.000000	3.000000	3.000000	3.000000	3.000000	3.000000	3.000000	3.000000	3.000000	3.000000	3.000000	3.000000	3.000000	3.000000	3.000000	3.000000	3.000000	3.000000	3.000000	3.000000	3.000000	3.000000	3.000000	3.000000	3.000000	3.000000	3.000000	3.000000	3.000000	3.000000	3.000000	3.000000	3.000000	3.000000	3.000000	3.000000	3.000000	3.000000	3.000000	3.000000	3.000000	3.000000	3.000000	3.000000	3.000000	3.000000	3.000000	3.000000	3.000000	3.000000	3.000000	3.000000	3.000000	3.000000	3.000000	3.000000	3.000000	3.000000	3.000000	3.000000	3.000000	3.000000	3.000000	3.000000	3.000000	3.000000	3.000000	3.000000	3.000000	3.000000	3.000000	3.000000	3.000000	3.000000	3.000000	3.000000	3.000000	3.000000	3.000000	3.000000	3.000000	3.000000	3.000000	3.000000	3.000000	3.000000	3.000000	3.000000	3.000000	3.000000	3.000000	3.000000	3.000000	3.000000	3.000000	3.000000	3.000000	3.000000	3.000000	3.000000	1.000000	1.000000	1.000000	1.000000	1.000000	1.000000	1.000000	1.000000	1.000000	1.000000	1.000000	1.000000	1.000000	1.000000	1.000000	1.000000	1.000000	1.000000	1.000000	1.000000	1.000000	1.000000	1.000000	1.000000	1.000000	1.000000	1.000000	1.000000	1.000000	1.000000	1.000000	1.000000	1.000000	1.000000	1.000000	1.000000	1.000000	1.000000	1.000000	1.000000	1.000000	1.000000	1.000000	1.000000	1.000000	1.000000	1.000000	1.000000	1.000000	1.000000	1.000000	1.000000	1.000000	1.000000	1.000000	1.000000	1.000000	1.000000	1.000000	1.000000	1.000000	1.000000	1.000000	1.000000	1.000000	1.000000	1.000000	1.000000	1.000000	1.000000	1.000000	1.000000	1.000000	1.000000	1.000000	1.000000	1.000000	1.000000	1.000000	1.000000	1.000000	1.000000	1.000000	1.000000	1.000000	1.000000	1.000000	1.000000	1.000000	1.000000	1.000000	1.000000	1.000000	1.000000	1.000000	1.000000	1.000000	1.000000	1.000000	1.000000	1.000000	1.000000	1.000000	1.000000	1.000000	1.000000	1.000000	1.000000	1.000000	1.000000	1.000000	1.000000	1.000000	1.000000	1.000000	1.000000	1.000000	1.000000	1.000000	1.000000	1.000000	1.000000	1.000000	1.000000	1.000000	1.000000	1.000000	1.000000	1.000000	1.000000	1.000000	1.000000	1.000000	1.000000	1.000000	1.000000	1.000000	1.000000	1.000000	1.000000	1.000000	1.000000	1.000000	1.000000	1.000000	1.000000	1.000000	1.000000	1.000000	1.000000	1.000000	1.000000	1.000000	1.000000	1.000000	1.000000	1.000000	1.000000	1.000000	1.000000	1.000000	1.000000	1.000000	1.000000	1.000000	1.000000	1.000000	1.000000	1.000000	1.000000	1.000000	1.000000	1.000000	1.000000	1.000000	1.000000	1.000000	1.000000	1.000000	1.000000	1.000000	1.000000	1.000000	1.000000	1.000000	1.000000	1.000000	1.000000	1.000000	1.000000	1.000000	1.000000	1.000000	1.000000	1.000000	1.000000	1.000000	1.000000	1.000000	1.000000	1.000000	1.000000	1.000000	1.000000	1.000000	1.000000	1.000000	1.000000	1.000000	1.000000	1.000000	1.000000	1.000000	1.000000	1.000000	1.000000	1.000000	1.000000	1.000000	1.000000	1.000000	1.000000	1.000000	1.000000	1.000000	1.000000	1.000000	1.000000	1.000000	1.000000	1.000000	1.000000	1.000000	1.000000	1.000000	1.000000	1.000000	1.000000	1.000000	1.000000	1.000000	1.000000	1.000000	1.000000	1.000000	1.000000	1.000000	1.000000	1.000000	1.000000	1.000000	1.000000	1.000000	1.000000	1.000000	1.000000	1.000000	1.000000	1.000000	1.000000	1.000000	1.000000	1.000000	1.000000	1.000000	1.000000	1.000000	1.000000	1.000000	1.000000	1.000000	1.000000	1.000000	1.000000	1.000000	1.000000	1.000000	1.000000	1.000000	1.000000	1.000000	1.000000	1.000000	1.000000	1.000000	1.000000	1.000000	1.000000	1.000000	1.000000	1.000000	1.000000	1.000000	1.000000	1.000000	1.000000	1.000000	1.000000	1.000000	1.000000	1.000000	1.000000	1.000000	1.000000	1.000000	1.000000	1.000000	1.000000	1.000000	1.000000	1.000000	1.000000	1.000000	1.000000	1.000000	1.000000	1.000000	1.000000	1.000000	1.000000	1.000000	1.000000	1.000000	1.000000	1.000000	1.000000	1.000000	1.000000	1.000000	1.000000	1.000000	1.000000	1.000000	1.000000	1.000000	1.000000	1.000000	1.000000	1.000000	1.000000	1.000000	1.000000	1.000000	1.000000	1.000000	1.000000	1.000000	1.000000	1.000000	1.000000	1.000000	1.000000	1.000000	1.000000	1.000000	1.000000	1.000000	1.000000	1.000000	1.000000	1.000000	1.000000	1.000000	1.000000	1.000000	1.000000	1.000000	1.000000	1.000000	1.000000	1.000000	1.000000	1.000000	1.000000	1.000000	1.000000	1.000000	1.000000	1.000000	1.000000	1.000000	1.000000	1.000000	1.000000	1.000000	1.000000	1.000000	1.000000	1.000000	1.000000	1.000000	1.000000	1.000000	1.000000	1.000000	1.000000	1.000000	1.000000	1.000000	1.000000	1.000000	1.000000	1.000000	1.000000	1.000000	1.000000	1.000000	1.000000	1.000000	1.000000	1.000000	1.000000	1.000000	1.000000	1.000000	1.000000	1.000000	1.000000	1.000000	1.000000	1.000000	1.000000	1.000000	1.000000	1.000000	1.000000	1.000000	1.000000	1.000000	1.000000	1.000000	1.000000	1.000000	1.000000	1.000000	1.000000	1.000000	1.000000	1.000000	1.000000	1.000000	1.000000	1.000000	1.000000	1.000000	1.000000	1.000000	1.000000	1.000000	1.000000	1.000000	1.000000	1.000000	1.000000	1.000000	1.000000	1.000000	1.000000	1.000000	1.000000	1.000000	1.000000	1.000000	1.000000	1.000000	1.000000	1.000000	1.000000	1.000000	1.000000	1.000000	1.000000	1.000000	1.000000	1.000000	1.000000	1.000000	1.000000	1.000000	1.000000	1.000000	1.000000	1.000000	1.000000	1.000000	1.000000	1.000000	1.000000	1.000000	1.000000	1.000000	1.000000	1.000000	1.000000	1.000000	1.000000	1.000000	1.000000	1.000000	1.000000	1.000000	1.000000	1.000000	1.000000	1.000000	1.000000	1.000000	1.000000	1.000000	1.000000	1.000000	1.000000	1.000000	1.000000	1.000000	1.000000	1.000000	1.000000	1.000000	1.000000	1.000000	1.000000	1.000000	1.000000	1.000000	1.000000	1.000000	1.000000	1.000000	1.000000	1.000000	1.000000	1.000000	1.000000	1.000000	1.000000	1.000000	1.000000	1.000000	1.000000	1.000000	1.000000	1.000000	1.000000	1.000000	1.000000	1.000000	1.000000	1.000000	1.000000	1.000000	1.000000	1.000000	1.000000	1.000000	1.000000	1.000000	1.000000	1.000000	1.000000	1.000000	1.000000	1.000000	1.000000	1.000000	1.000000	1.000000	1.000000	1.000000	1.000000	1.000000	1.000000	1.000000	1.000000	1.000000	1.000000	1.000000	1.000000	1.000000	1.000000	1.000000	1.000000	1.000000	1.000000	1.000000	1.000000	1.000000	1.000000	1.000000	1.000000	1.000000	1.000000	1.000000	1.000000	1.000000	1.000000	1.000000	1.000000	1.000000	1.000000	1.000000	1.000000	1.000000	1.000000	1.000000	1.000000	1.000000	1.000000	1.000000	1.000000	1.000000	1.000000	1.000000	1.000000	1.000000	1.000000	1.000000	1.000000	1.000000	1.000000	1.000000	1.000000	1.000000	1.000000	1.000000	1.000000	1.000000	1.000000	1.000000	1.000000	1.000000	1.000000	1.000000	1.000000	1.000000	1.000000	1.000000	1.000000	1.000000	1.000000	1.000000	1.000000	1.000000	1.000000	1.000000	1.000000	1.000000	1.000000	1.000000	1.000000	1.000000	1.000000	1.000000	1.000000	1.000000	1.000000	1.000000	1.000000	1.000000	1.000000	1.000000	1.000000	1.000000	1.000000	1.000000	1.000000	1.000000	1.000000	1.000000	1.000000	1.000000	1.000000	1.000000	1.000000	1.000000	1.000000	1.000000	1.000000	1.000000	1.000000	1.000000	1.000000	1.000000	1.000000	1.000000	1.000000	1.000000	1.000000	1.000000	1.000000	1.000000	1.000000	1.000000	1.000000	1.000000	1.000000	1.000000	1.000000	1.000000	1.000000	1.000000	1.000000	1.000000	1.000000	1.000000	1.000000	1.000000	1.000000	1.000000	1.000000	1.000000	1.000000	1.000000	1.000000	1.000000	1.000000	1.000000	1.000000	1.000000	1.000000	1.000000	1.000000	1.000000	1.000000	1.000000	1.000000	1.000000	1.000000	1.000000	1.000000	1.000000	1.000000	1.000000	1.000000	1.000000	1.000000	1.000000	1.000000	1.000000	1.000000	1.000000	1.000000	1.000000	1.000000	1.000000	1.000000	1.000000	1.000000	1.000000	1.000000	1.000000	1.000000	1.000000	1.000000	1.000000	1.000000	1.000000	1.000000	1.000000	1.000000	1.000000	1.000000	1.000000	1.000000	1.000000	1.000000	1.000000	1.000000	1.000000	1.000000	1.000000	1.000000	1.000000	1.000000	1.000000	1.000000	1.000000	1.000000	1.000000	1.000000	1.000000	1.000000	1.000000	1.000000	1.000000	1.000000	1.000000	1.000000	1.000000	1.000000	1.000000	1.000000	1.000000	1.000000	1.000000	1.000000	1.000000	1.000000	1.000000	1.000000	
SCALARS COL float
LOOKUP_TABLE default
0.000000	0.000000	0.000000	0.000000	0.000000	0.000000	0.000000	0.000000	0.000000	0.000000	0.000000	0.000000	0.000000	0.000000	0.000000	0.000000	0.000000	0.000000	0.000000	0.000000	0.000000	0.000000	0.000000	0.000000	0.000000	0.000000	0.000000	0.000000	0.000000	0.000000	0.000000	0.000000	0.000000	0.000000	0.000000	0.000000	0.000000	0.000000	0.000000	0.000000	0.000000	0.000000	0.000000	0.000000	0.000000	0.000000	0.000000	0.000000	0.000000	0.000000	0.000000	0.000000	0.000000	0.000000	0.000000	0.000000	0.000000	0.000000	0.000000	0.000000	0.000000	0.000000	0.000000	0.000000	0.000000	0.000000	0.000000	0.000000	0.000000	0.000000	0.000000	0.000000	0.000000	0.000000	0.000000	0.000000	0.000000	0.000000	0.000000	0.000000	0.000000	0.000000	0.000000	0.000000	0.000000	0.000000	0.000000	0.000000	0.000000	0.000000	0.000000	0.000000	0.000000	0.000000	0.000000	0.000000	0.000000	0.000000	0.000000	0.000000	0.000000	0.000000	0.000000	0.000000	0.000000	0.000000	0.000000	0.000000	0.000000	0.000000	0.000000	0.000000	0.000000	0.000000	0.000000	0.000000	0.000000	0.000000	0.000000	0.000000	0.000000	0.000000	0.000000	0.000000	0.000000	0.000000	0.000000	0.000000	0.000000	0.000000	0.000000	0.000000	0.000000	0.000000	0.000000	0.000000	0.000000	0.000000	0.000000	0.000000	0.000000	0.000000	0.000000	0.000000	0.000000	0.000000	0.000000	0.000000	0.000000	0.000000	0.000000	0.000000	0.000000	0.000000	0.000000	0.000000	0.000000	0.000000	0.000000	0.000000	0.000000	0.000000	0.000000	0.000000	0.000000	0.000000	0.000000	0.000000	0.000000	0.000000	0.000000	0.000000	0.000000	0.000000	0.000000	0.000000	0.000000	0.000000	0.000000	0.000000	0.000000	0.000000	0.000000	0.000000	0.000000	0.000000	0.000000	0.000000	0.000000	0.000000	0.000000	0.000000	0.000000	0.000000	0.000000	0.000000	0.000000	0.000000	0.000000	0.000000	0.000000	0.000000	0.000000	0.000000	0.000000	0.000000	0.000000	0.000000	0.000000	0.000000	0.000000	0.000000	0.000000	0.000000	0.000000	0.000000	0.000000	0.000000	0.000000	0.000000	0.000000	0.000000	2.000000	2.000000	2.000000	2.000000	2.000000	2.000000	2.000000	2.000000	2.000000	2.000000	2.000000	2.000000	2.000000	2.000000	2.000000	2.000000	2.000000	2.000000	2.000000	2.000000	2.000000	2.000000	2.000000	2.000000	2.000000	2.000000	2.000000	2.000000	2.000000	2.000000	2.000000	2.000000	2.000000	2.000000	2.000000	2.000000	2.000000	2.000000	2.000000	2.000000	2.000000	2.000000	2.000000	2.000000	2.000000	2.000000	2.000000	2.000000	2.000000	2.000000	2.000000	2.000000	2.000000	2.000000	2.000000	2.000000	2.000000	2.000000	2.000000	2.000000	2.000000	2.000000	2.000000	2.000000	2.000000	2.000000	2.000000	2.000000	2.000000	2.000000	2.000000	2.000000	2.000000	2.000000	2.000000	2.000000	2.000000	2.000000	2.000000	2.000000	2.000000	2.000000	2.000000	2.000000	2.000000	2.000000	2.000000	2.000000	2.000000	2.000000	2.000000	2.000000	2.000000	2.000000	2.000000	2.000000	2.000000	2.000000	2.000000	2.000000	3.000000	3.000000	3.000000	3.000000	3.000000	3.000000	3.000000	3.000000	3.000000	3.000000	3.000000	3.000000	3.000000	3.000000	3.000000	3.000000	3.000000	3.000000	3.000000	3.000000	3.000000	3.000000	3.000000	3.000000	3.000000	3.000000	3.000000	3.000000	3.000000	3.000000	3.000000	3.000000	3.000000	3.000000	3.000000	3.000000	3.000000	3.000000	3.000000	3.000000	3.000000	3.000000	3.000000	3.000000	3.000000	3.000000	3.000000	3.000000	3.000000	3.000000	3.000000	3.000000	3.000000	3.000000	3.000000	3.000000	3.000000	3.000000	3.000000	3.000000	3.000000	3.000000	3.000000	3.000000	3.000000	3.000000	3.000000	3.000000	3.000000	3.000000	3.000000	3.000000	3.000000	3.000000	3.000000	3.000000	3.000000	3.000000	3.000000	3.000000	3.000000	3.000000	3.000000	3.000000	3.000000	3.000000	3.000000	3.000000	3.000000	3.000000	3.000000	3.000000	3.000000	3.000000	3.000000	3.000000	3.000000	3.000000	3.000000	3.000000	2.000000	2.000000	2.000000	2.000000	2.000000	2.000000	2.000000	2.000000	2.000000	2.000000	2.000000	2.000000	2.000000	2.000000	2.000000	2.000000	2.000000	2.000000	2.000000	2.000000	2.000000	2.000000	2.000000	2.000000	2.000000	2.000000	2.000000	2.000000	2.000000	2.000000	2.000000	2.000000	2.000000	2.000000	2.000000	2.000000	2.000000	2.000000	2.000000	2.000000	2.000000	2.000000	2.000000	2.000000	2.000000	2.000000	2.000000	2.000000	2.000000	2.000000	2.000000	2.000000	2.000000	2.000000	2.000000	2.000000	2.000000	2.000000	2.000000	2.000000	2.000000	2.000000	2.000000	2.000000	2.000000	2.000000	2.000000	2.000000	2.000000	2.000000	2.000000	2.000000	2.000000	2.000000	2.000000	2.000000	2.000000	2.000000	2.000000	2.000000	2.000000	2.000000	2.000000	2.000000	2.000000	2.000000	2.000000	2.000000	2.000000	2.000000	2.000000	2.000000	2.000000	2.000000	2.000000	2.000000	2.000000	2.000000	2.000000	2.000000	3.000000	3.000000	3.000000	3.000000	3.000000	3.000000	3.000000	3.000000	3.000000	3.000000	3.000000	3.000000	3.000000	3.000000	3.000000	3.000000	3.000000	3.000000	3.000000	3.000000	3.000000	3.000000	3.000000	3.000000	3.000000	3.000000	3.000000	3.000000	3.000000	3.000000	3.000000	3.000000	3.000000	3.000000	3.000000	3.000000	3.000000	3.000000	3.000000	3.000000	3.000000	3.000000	3.000000	3.000000	3.000000	3.000000	3.000000	3.000000	3.000000	3.000000	3.000000	3.000000	3.000000	3.000000	3.000000	3.000000	3.000000	3.000000	3.000000	3.000000	3.000000	3.000000	3.000000	3.000000	3.000000	3.000000	3.000000	3.000000	3.000000	3.000000	3.000000	3.000000	3.000000	3.000000	3.000000	3.000000	3.000000	3.000000	3.000000	3.000000	3.000000	3.000000	3.000000	3.000000	3.000000	3.000000	3.000000	3.000000	3.000000	3.000000	3.000000	3.000000	3.000000	3.000000	3.000000	3.000000	3.000000	3.000000	3.000000	3.000000	2.000000	2.000000	2.000000	2.000000	2.000000	2.000000	2.000000	2.000000	2.000000	2.000000	2.000000	2.000000	2.000000	2.000000	2.000000	2.000000	2.000000	2.000000	2.000000	2.000000	2.000000	2.000000	2.000000	2.000000	2.000000	2.000000	2.000000	2.000000	2.000000	2.000000	2.000000	2.000000	2.000000	2.000000	2.000000	2.000000	2.000000	2.000000	2.000000	2.000000	2.000000	2.000000	2.000000	2.000000	2.000000	2.000000	2.000000	2.000000	2.000000	2.000000	2.000000	2.000000	2.000000	2.000000	2.000000	2.000000	2.000000	2.000000	2.000000	2.000000	2.000000	2.000000	2.000000	2.000000	2.000000	2.000000	2.000000	2.000000	2.000000	2.000000	2.000000	2.000000	2.000000	2.000000	2.000000	2.000000	2.000000	2.000000	2.000000	2.000000	2.000000	2.000000	2.000000	2.000000	2.000000	2.000000	2.000000	2.000000	2.000000	2.000000	2.000000	2.000000	2.000000	2.000000	2.000000	2.000000	2.000000	2.000000	2.000000	2.000000	3.000000	3.000000	3.000000	3.000000	3.000000	3.000000	3.000000	3.000000	3.000000	3.000000	3.000000	3.000000	3.000000	3.000000	3.000000	3.000000	3.000000	3.000000	3.000000	3.000000	3.000000	3.000000	3.000000	3.000000	3.000000	3.000000	3.000000	3.000000	3.000000	3.000000	3.000000	3.000000	3.000000	3.000000	3.000000	3.000000	3.000000	3.000000	3.000000	3.000000	3.000000	3.000000	3.000000	3.000000	3.000000	3.000000	3.000000	3.000000	3.000000	3.000000	3.000000	3.000000	3.000000	3.000000	3.000000	3.000000	3.000000	3.000000	3.000000	3.000000	3.000000	3.000000	3.000000	3.000000	3.000000	3.000000	3.000000	3.000000	3.000000	3.000000	3.000000	3.000000	3.000000	3.000000	3.000000	3.000000	3.000000	3.000000	3.000000	3.000000	3.000000	3.000000	3.000000	3.000000	3.000000	3.000000	3.000000	3.000000	3.000000	3.000000	3.000000	3.000000	3.000000	3.000000	3.000000	3.000000	3.000000	3.000000	3.000000	3.000000	2.000000	2.000000	2.000000	2.000000	2.000000	2.000000	2.000000	2.000000	2.000000	2.000000	2.000000	2.000000	2.000000	2.000000	2.000000	2.000000	2.000000	2.000000	2.000000	2.000000	2.000000	2.000000	2.000000	2.000000	2.000000	2.000000	2.000000	2.000000	2.000000	2.000000	2.000000	2.000000	2.000000	2.000000	2.000000	2.000000	2.000000	2.000000	2.000000	2.000000	2.000000	2.000000	2.000000	2.000000	2.000000	2.000000	2.000000	2.000000	2.000000	2.000000	2.000000	2.000000	2.000000	2.000000	2.000000	2.000000	2.000000	2.000000	2.000000	2.000000	2.000000	2.000000	2.000000	2.000000	2.000000	2.000000	2.000000	2.000000	2.000000	2.000000	2.000000	2.000000	2.000000	2.000000	2.000000	2.000000	2.000000	2.000000	2.000000	2.000000	2.000000	2.000000	2.000000	2.000000	2.000000	2.000000	2.000000	2.000000	2.000000	2.000000	2.000000	2.000000	2.000000	2.000000	2.000000	2.000000	2.000000	2.000000	2.000000	2.000000	3.000000	3.000000	3.000000	3.000000	3.000000	3.000000	3.000000	3.000000	3.000000	3.000000	3.000000	3.000000	3.000000	3.000000	3.000000	3.000000	3.000000	3.000000	3.000000	3.000000	3.000000	3.000000	3.000000	3.000000	3.000000	3.000000	3.000000	3.000000	3.000000	3.000000	3.000000	3.000000	3.000000	3.000000	3.000000	3.000000	3.000000	3.000000	3.000000	3.000000	3.000000	3.000000	3.000000	3.000000	3.000000	3.000000	3.000000	3.000000	3.000000	3.000000	3.000000	3.000000	3.000000	3.000000	3.000000	3.000000	3.000000	3.000000	3.000000	3.000000	3.000000	3.000000	3.000000	3.000000	3.000000	3.000000	3.000000	3.000000	3.000000	3.000000	3.000000	3.000000	3.000000	3.000000	3.000000	3.000000	3.000000	3.000000	3.000000	3.000000	3.000000	3.000000	3.000000	3.000000	3.000000	3.000000	3.000000	3.000000	3.000000	3.000000	3.000000	3.000000	3.000000	3.000000	3.000000	3.000000	3.000000	3.000000	3.000000	3.000000	
SCALARS TFIXED float
LOOKUP_TABLE default
111.000000	111.000000	111.000000	111.000000	111.000000	111.000000	111.000000	111.000000	111.000000	111.000000	111.000000	111.000000	111.000000	111.000000	111.000000	111.000000	111.000000	111.000000	111.000000	111.000000	111.000000	111.000000	111.000000	111.000000	111.000000	111.000000	111.000000	111.000000	111.000000	111.000000	111.000000	111.000000	111.000000	111.000000	111.000000	111.000000	111.000000	111.000000	111.000000	111.000000	111.000000	111.000000	111.000000	111.000000	111.000000	111.000000	111.000000	111.000000	111.000000	111.000000	111.000000	111.000000	111.000000	111.000000	111.000000	111.000000	111.000000	111.000000	111.000000	111.000000	111.000000	111.000000	111.000000	111.000000	111.000000	111.000000	111.000000	111.000000	111.000000	111.000000	111.000000	111.000000	111.000000	111.000000	111.000000	111.000000	111.000000	111.000000	111.000000	111.000000	111.000000	111.000000	111.000000	111.000000	111.000000	111.000000	111.000000	111.000000	111.000000	111.000000	111.000000	111.000000	111.000000	111.000000	111.000000	111.000000	111.000000	111.000000	111.000000	111.000000	111.000000	111.000000	111.000000	111.000000	111.000000	111.000000	111.000000	111.000000	111.000000	111.000000	111.000000	111.000000	111.000000	111.000000	111.000000	111.000000	111.000000	111.000000	111.000000	111.000000	111.000000	111.000000	111.000000	111.000000	111.000000	111.000000	111.000000	111.000000	111.000000	111.000000	111.000000	111.000000	111.000000	111.000000	111.000000	111.000000	111.000000	111.000000	111.000000	111.000000	111.000000	111.000000	111.000000	111.000000	111.000000	111.000000	111.000000	111.000000	111.000000	111.000000	111.000000	111.000000	111.000000	111.000000	111.000000	111.000000	111.000000	111.000000	111.000000	111.000000	111.000000	111.000000	111.000000	111.000000	111.000000	111.000000	111.000000	111.000000	111.000000	111.000000	111.000000	111.000000	111.000000	111.000000	111.000000	111.000000	111.000000	111.000000	111.000000	111.000000	111.000000	111.000000	111.000000	111.000000	111.000000	111.000000	111.000000	111.000000	111.000000	111.000000	111.000000	111.000000	111.000000	111.000000	111.000000	111.000000	111.000000	111.000000	111.000000	111.000000	111.000000	111.000000	111.000000	111.000000	111.000000	111.000000	111.000000	111.000000	111.000000	111.000000	111.000000	111.000000	111.000000	111.000000	111.000000	111.000000	111.000000	111.000000	111.000000	111.000000	111.000000	111.000000	0.000000	0.000000	0.000000	0.000000	0.000000	0.000000	0.000000	0.000000	0.000000	0.000000	0.000000	0.000000	0.000000	0.000000	0.000000	0.000000	0.000000	0.000000	0.000000	0.000000	0.000000	0.000000	0.000000	0.000000	0.000000	0.000000	0.000000	0.000000	0.000000	0.000000	0.000000	0.000000	0.000000	0.000000	0.000000	0.000000	0.000000	0.000000	0.000000	0.000000	0.000000	0.000000	0.000000	0.000000	0.000000	0.000000	0.000000	0.000000	0.000000	0.000000	0.000000	0.000000	0.000000	0.000000	0.000000	0.000000	0.000000	0.000000	0.000000	0.000000	0.000000	0.000000	0.000000	0.000000	0.000000	0.000000	0.000000	0.000000	0.000000	0.000000	0.000000	0.000000	0.000000	0.000000	0.000000	0.000000	0.000000	0.000000	0.000000	0.000000	0.000000	0.000000	0.000000	0.000000	0.000000	0.000000	0.000000	0.000000	0.000000	0.000000	0.000000	0.000000	0.000000	0.000000	0.000000	0.000000	0.000000	0.000000	0.000000	0.000000	0.000000	0.000000	0.000000	0.000000	0.000000	0.000000	0.000000	0.000000	0.000000	0.000000	0.000000	0.000000	0.000000	0.000000	0.000000	0.000000	0.000000	0.000000	0.000000	0.000000	0.000000	0.000000	0.000000	0.000000	0.000000	0.000000	0.000000	0.000000	0.000000	0.000000	0.000000	0.000000	0.000000	0.000000	0.000000	0.000000	0.000000	0.000000	0.000000	0.000000	0.000000	0.000000	0.000000	0.000000	0.000000	0.000000	0.000000	0.000000	0.000000	0.000000	0.000000	0.000000	0.000000	0.000000	0.000000	0.000000	0.000000	0.000000	0.000000	0.000000	0.000000	0.000000	0.000000	0.000000	0.000000	0.000000	0.000000	0.000000	0.000000	0.000000	0.000000	0.000000	0.000000	0.000000	0.000000	0.000000	0.000000	0.000000	0.000000	0.000000	0.000000	0.000000	0.000000	0.000000	0.000000	0.000000	0.000000	0.000000	0.000000	0.000000	0.000000	0.000000	0.000000	0.000000	0.000000	0.000000	0.000000	0.000000	0.000000	0.000000	0.000000	0.000000	0.000000	0.000000	0.000000	0.000000	0.000000	0.000000	0.000000	0.000000	0.000000	0.000000	0.000000	0.000000	0.000000	0.000000	0.000000	0.000000	0.000000	0.000000	0.000000	0.000000	0.000000	0.000000	0.000000	0.000000	0.000000	0.000000	0.000000	0.000000	0.000000	0.000000	0.000000	0.000000	0.000000	0.000000	0.000000	0.000000	0.000000	0.000000	0.000000	0.000000	0.000000	0.000000	0.000000	0.000000	0.000000	0.000000	0.000000	0.000000	0.000000	0.000000	0.000000	0.000000	0.000000	0.000000	0.000000	0.000000	0.000000	0.000000	0.000000	0.000000	0.000000	0.000000	0.000000	0.000000	0.000000	0.000000	0.000000	0.000000	0.000000	0.000000	0.000000	0.000000	0.000000	0.000000	0.000000	0.000000	0.000000	0.000000	0.000000	0.000000	0.000000	0.000000	0.000000	0.000000	0.000000	0.000000	0.000000	0.000000	0.000000	0.000000	0.000000	0.000000	0.000000	0.000000	0.000000	0.000000	0.000000	0.000000	0.000000	0.000000	0.000000	0.000000	0.000000	0.000000	0.000000	0.000000	0.000000	0.000000	0.000000	0.000000	0.000000	0.000000	0.000000	0.000000	0.000000	0.000000	0.000000	0.000000	0.000000	0.000000	0.000000	0.000000	0.000000	0.000000	0.000000	0.000000	0.000000	0.000000	0.000000	0.000000	0.000000	0.000000	0.000000	0.000000	0.000000	0.000000	0.000000	0.000000	0.000000	0.000000	0.000000	0.000000	0.000000	0.000000	0.000000	0.000000	0.000000	0.000000	0.000000	0.000000	0.000000	0.000000	0.000000	0.000000	0.000000	0.000000	0.000000	0.000000	0.000000	0.000000	0.000000	0.000000	0.000000	0.000000	0.000000	0.000000	0.000000	0.000000	0.000000	0.000000	0.000000	0.000000	0.000000	0.000000	0.000000	0.000000	0.000000	0.000000	0.000000	0.000000	0.000000	0.000000	0.000000	0.000000	0.000000	0.000000	0.000000	0.000000	0.000000	0.000000	0.000000	0.000000	0.000000	0.000000	0.000000	0.000000	0.000000	0.000000	0.000000	0.000000	0.000000	0.000000	0.000000	0.000000	0.000000	0.000000	0.000000	0.000000	0.000000	0.000000	0.000000	0.000000	0.000000	0.000000	0.000000	0.000000	0.000000	0.000000	0.000000	0.000000	0.000000	0.000000	0.000000	0.000000	0.000000	0.000000	0.000000	0.000000	0.000000	0.000000	0.000000	0.000000	0.000000	0.000000	0.000000	0.000000	0.000000	0.000000	0.000000	0.000000	0.000000	0.000000	0.000000	0.000000	0.000000	0.000000	0.000000	0.000000	0.000000	0.000000	0.000000	0.000000	0.000000	0.000000	0.000000	0.000000	0.000000	0.000000	0.000000	0.000000	0.000000	0.000000	0.000000	0.000000	0.000000	0.000000	0.000000	0.000000	0.000000	0.000000	0.000000	0.000000	0.000000	0.000000	0.000000	0.000000	0.000000	0.000000	0.000000	0.000000	0.000000	0.000000	0.000000	0.000000	0.000000	0.000000	0.000000	0.000000	0.000000	0.000000	0.000000	0.000000	0.000000	0.000000	0.000000	0.000000	0.000000	0.000000	0.000000	0.000000	0.000000	0.000000	0.000000	0.000000	0.000000	0.000000	0.000000	0.000000	0.000000	0.000000	0.000000	0.000000	0.000000	0.000000	0.000000	0.000000	0.000000	0.000000	0.000000	0.000000	0.000000	0.000000	0.000000	0.000000	0.000000	0.000000	0.000000	0.000000	0.000000	0.000000	0.000000	0.000000	0.000000	0.000000	0.000000	0.000000	0.000000	0.000000	0.000000	0.000000	0.000000	0.000000	0.000000	0.000000	0.000000	0.000000	0.000000	0.000000	0.000000	0.000000	0.000000	0.000000	0.000000	0.000000	0.000000	0.000000	0.000000	0.000000	0.000000	0.000000	0.000000	0.000000	0.000000	0.000000	0.000000	0.000000	0.000000	0.000000	0.000000	0.000000	0.000000	0.000000	0.000000	0.000000	0.000000	0.000000	0.000000	0.000000	0.000000	0.000000	0.000000	0.000000	0.000000	0.000000	0.000000	0.000000	0.000000	0.000000	0.000000	0.000000	0.000000	0.000000	0.000000	0.000000	0.000000	0.000000	0.000000	0.000000	0.000000	0.000000	0.000000	0.000000	0.000000	0.000000	0.000000	0.000000	0.000000	0.000000	0.000000	0.000000	0.000000	0.000000	0.000000	0.000000	0.000000	0.000000	0.000000	0.000000	0.000000	0.000000	0.000000	0.000000	0.000000	0.000000	0.000000	0.000000	0.000000	0.000000	0.000000	0.000000	0.000000	0.000000	0.000000	0.000000	0.000000	0.000000	0.000000	0.000000	0.000000	0.000000	0.000000	0.000000	0.000000	0.000000	0.000000	0.000000	0.000000	0.000000	0.000000	0.000000	0.000000	0.000000	0.000000	0.000000	0.000000	0.000000	0.000000	0.000000	0.000000	0.000000	0.000000	0.000000	0.000000	0.000000	0.000000	0.000000	0.000000	0.000000	0.000000	0.000000	0.000000	0.000000	0.000000	0.000000	0.000000	0.000000	0.000000	0.000000	0.000000	0.000000	0.000000	0.000000	0.000000	0.000000	0.000000	0.000000	0.000000	0.000000	0.000000	0.000000	0.000000	0.000000	0.000000	0.000000	0.000000	0.000000	0.000000	0.000000	0.000000	0.000000	0.000000	0.000000	0.000000	0.000000	0.000000	0.000000	0.000000	0.000000	0.000000	0.000000	0.000000	0.000000	0.000000	0.000000	0.000000	0.000000	0.000000	0.000000	0.000000	0.000000	0.000000	0.000000	0.000000	0.000000	0.000000	0.000000	0.000000	0.000000	0.000000	0.000000	0.000000	0.000000	0.000000	0.000000	0.000000	0.000000	0.000000	0.000000	0.000000	0.000000	0.000000	0.000000	0.000000	0.000000	0.000000	0.000000	0.000000	0.000000	0.000000	0.000000	0.000000	0.000000	0.000000	0.000000	0.000000	0.000000	0.000000	0.000000	0.000000	0.000000	0.000000	0.000000	0.000000	0.000000	0.000000	0.000000	0.000000	0.000000	0.000000	0.000000	0.000000	0.000000	0.000000	0.000000	0.000000	0.000000	0.000000	0.000000	0.000000	0.000000	0.000000	0.000000	0.000000	0.000000	0.000000	0.000000	0.000000	0.000000	0.000000	0.000000	0.000000	0.000000	0.000000	0.000000	0.000000	0.000000	0.000000	0.000000	
SCALARS RFIXED float
LOOKUP_TABLE default
111.000000	111.000000	111.000000	111.000000	111.000000	111.000000	111.000000	111.000000	111.000000	111.000000	111.000000	111.000000	111.000000	111.000000	111.000000	111.000000	111.000000	111.000000	111.000000	111.000000	111.000000	111.000000	111.000000	111.000000	111.000000	111.000000	111.000000	111.000000	111.000000	111.000000	111.000000	111.000000	111.000000	111.000000	111.000000	111.000000	111.000000	111.000000	111.000000	111.000000	111.000000	111.000000	111.000000	111.000000	111.000000	111.000000	111.000000	111.000000	111.000000	111.000000	111.000000	111.000000	111.000000	111.000000	111.000000	111.000000	111.000000	111.000000	111.000000	111.000000	111.000000	111.000000	111.000000	111.000000	111.000000	111.000000	111.000000	111.000000	111.000000	111.000000	111.000000	111.000000	111.000000	111.000000	111.000000	111.000000	111.000000	111.000000	111.000000	111.000000	111.000000	111.000000	111.000000	111.000000	111.000000	111.000000	111.000000	111.000000	111.000000	111.000000	111.000000	111.000000	111.000000	111.000000	111.000000	111.000000	111.000000	111.000000	111.000000	111.000000	111.000000	111.000000	111.000000	111.000000	111.000000	111.000000	111.000000	111.000000	111.000000	111.000000	111.000000	111.000000	111.000000	111.000000	111.000000	111.000000	111.000000	111.000000	111.000000	111.000000	111.000000	111.000000	111.000000	111.000000	111.000000	111.000000	111.000000	111.000000	111.000000	111.000000	111.000000	111.000000	111.000000	111.000000	111.000000	111.000000	111.000000	111.000000	111.000000	111.000000	111.000000	111.000000	111.000000	111.000000	111.000000	111.000000	111.000000	111.000000	111.000000	111.000000	111.000000	111.000000	111.000000	111.000000	111.000000	111.000000	111.000000	111.000000	111.000000	111.000000	111.000000	111.000000	111.000000	111.000000	111.000000	111.000000	111.000000	111.000000	111.000000	111.000000	111.000000	111.000000	111.000000	111.000000	111.000000	111.000000	111.000000	111.000000	111.000000	111.000000	111.000000	111.000000	111.000000	111.000000	111.000000	111.000000	111.000000	111.000000	111.000000	111.000000	111.000000	111.000000	111.000000	111.000000	111.000000	111.000000	111.000000	111.000000	111.000000	111.000000	111.000000	111.000000	111.000000	111.000000	111.000000	111.000000	111.000000	111.000000	111.000000	111.000000	111.000000	111.000000	111.000000	111.000000	111.000000	111.000000	111.000000	111.000000	111.000000	111.000000	111.000000	111.000000	0.000000	0.000000	0.000000	0.000000	0.000000	0.000000	0.000000	0.000000	0.000000	0.000000	0.000000	0.000000	0.000000	0.000000	0.000000	0.000000	0.000000	0.000000	0.000000	0.000000	0.000000	0.000000	0.000000	0.000000	0.000000	0.000000	0.000000	0.000000	0.000000	0.000000	0.000000	0.000000	0.000000	0.000000	0.000000	0.000000	0.000000	0.000000	0.000000	0.000000	0.000000	0.000000	0.000000	0.000000	0.000000	0.000000	0.000000	0.000000	0.000000	0.000000	0.000000	0.000000	0.000000	0.000000	0.000000	0.000000	0.000000	0.000000	0.000000	0.000000	0.000000	0.000000	0.000000	0.000000	0.000000	0.000000	0.000000	0.000000	0.000000	0.000000	0.000000	0.000000	0.000000	0.000000	0.000000	0.000000	0.000000	0.000000	0.000000	0.000000	0.000000	0.000000	0.000000	0.000000	0.000000	0.000000	0.000000	0.000000	0.000000	0.000000	0.000000	0.000000	0.000000	0.000000	0.000000	0.000000	0.000000	0.000000	0.000000	0.000000	0.000000	0.000000	0.000000	0.000000	0.000000	0.000000	0.000000	0.000000	0.000000	0.000000	0.000000	0.000000	0.000000	0.000000	0.000000	0.000000	0.000000	0.000000	0.000000	0.000000	0.000000	0.000000	0.000000	0.000000	0.000000	0.000000	0.000000	0.000000	0.000000	0.000000	0.000000	0.000000	0.000000	0.000000	0.000000	0.000000	0.000000	0.000000	0.000000	0.000000	0.000000	0.000000	0.000000	0.000000	0.000000	0.000000	0.000000	0.000000	0.000000	0.000000	0.000000	0.000000	0.000000	0.000000	0.000000	0.000000	0.000000	0.000000	0.000000	0.000000	0.000000	0.000000	0.000000	0.000000	0.000000	0.000000	0.000000	0.000000	0.000000	0.000000	0.000000	0.000000	0.000000	0.000000	0.000000	0.000000	0.000000	0.000000	0.000000	0.000000	0.000000	0.000000	0.000000	0.000000	0.000000	0.000000	0.000000	0.000000	0.000000	0.000000	0.000000	0.000000	0.000000	0.000000	0.000000	0.000000	0.000000	0.000000	0.000000	0.000000	0.000000	0.000000	0.000000	0.000000	0.000000	0.000000	0.000000	0.000000	0.000000	0.000000	0.000000	0.000000	0.000000	0.000000	0.000000	0.000000	0.000000	0.000000	0.000000	0.000000	0.000000	0.000000	0.000000	0.000000	0.000000	0.000000	0.000000	0.000000	0.000000	0.000000	0.000000	0.000000	0.000000	0.000000	0.000000	0.000000	0.000000	0.000000	0.000000	0.000000	0.000000	0.000000	0.000000	0.000000	0.000000	0.000000	0.000000	0.000000	0.000000	0.000000	0.000000	0.000000	0.000000	0.000000	0.000000	0.000000	0.000000	0.000000	0.000000	0.000000	0.000000	0.000000	0.000000	0.000000	0.000000	0.000000	0.000000	0.000000	0.000000	0.000000	0.000000	0.000000	0.000000	0.000000	0.000000	0.000000	0.000000	0.000000	0.000000	0.000000	0.000000	0.000000	0.000000	0.000000	0.000000	0.000000	0.000000	0.000000	0.000000	0.000000	0.000000	0.000000	0.000000	0.000000	0.000000	0.000000	0.000000	0.000000	0.000000	0.000000	0.000000	0.000000	0.000000	0.000000	0.000000	0.000000	0.000000	0.000000	0.000000	0.000000	0.000000	0.000000	0.000000	0.000000	0.000000	0.000000	0.000000	0.000000	0.000000	0.000000	0.000000	0.000000	0.000000	0.000000	0.000000	0.000000	0.000000	0.000000	0.000000	0.000000	0.000000	0.000000	0.000000	0.000000	0.000000	0.000000	0.000000	0.000000	0.000000	0.000000	0.000000	0.000000	0.000000	0.000000	0.000000	0.000000	0.000000	0.000000	0.000000	0.000000	0.000000	0.000000	0.000000	0.000000	0.000000	0.000000	0.000000	0.000000	0.000000	0.000000	0.000000	0.000000	0.000000	0.000000	0.000000	0.000000	0.000000	0.000000	0.000000	0.000000	0.000000	0.000000	0.000000	0.000000	0.000000	0.000000	0.000000	0.000000	0.000000	0.000000	0.000000	0.000000	0.000000	0.000000	0.000000	0.000000	0.000000	0.000000	0.000000	0.000000	0.000000	0.000000	0.000000	0.000000	0.000000	0.000000	0.000000	0.000000	0.000000	0.000000	0.000000	0.000000	0.000000	0.000000	0.000000	0.000000	0.000000	0.000000	0.000000	0.000000	0.000000	0.000000	0.000000	0.000000	0.000000	0.000000	0.000000	0.000000	0.000000	0.000000	0.000000	0.000000	0.000000	0.000000	0.000000	0.000000	0.000000	0.000000	0.000000	0.000000	0.000000	0.000000	0.000000	0.000000	0.000000	0.000000	0.000000	0.000000	0.000000	0.000000	0.000000	0.000000	0.000000	0.000000	0.000000	0.000000	0.000000	0.000000	0.000000	0.000000	0.000000	0.000000	0.000000	0.000000	0.000000	0.000000	0.000000	0.000000	0.000000	0.000000	0.000000	0.000000	0.000000	0.000000	0.000000	0.000000	0.000000	0.000000	0.000000	0.000000	0.000000	0.000000	0.000000	0.000000	0.000000	0.000000	0.000000	0.000000	0.000000	0.000000	0.000000	0.000000	0.000000	0.000000	0.000000	0.000000	0.000000	0.000000	0.000000	0.000000	0.000000	0.000000	0.000000	0.000000	0.000000	0.000000	0.000000	0.000000	0.000000	0.000000	0.000000	0.000000	0.000000	0.000000	0.000000	0.000000	0.000000	0.000000	0.000000	0.000000	0.000000	0.000000	0.000000	0.000000	0.000000	0.000000	0.000000	0.000000	0.000000	0.000000	0.000000	0.000000	0.000000	0.000000	0.000000	0.000000	0.000000	0.000000	0.000000	0.000000	0.000000	0.000000	0.000000	0.000000	0.000000	0.000000	0.000000	0.000000	0.000000	0.000000	0.000000	0.000000	0.000000	0.000000	0.000000	0.000000	0.000000	0.000000	0.000000	0.000000	0.000000	0.000000	0.000000	0.000000	0.000000	0.000000	0.000000	0.000000	0.000000	0.000000	0.000000	0.000000	0.000000	0.000000	0.000000	0.000000	0.000000	0.000000	0.000000	0.000000	0.000000	0.000000	0.000000	0.000000	0.000000	0.000000	0.000000	0.000000	0.000000	0.000000	0.000000	0.000000	0.000000	0.000000	0.000000	0.000000	0.000000	0.000000	0.000000	0.000000	0.000000	0.000000	0.000000	0.000000	0.000000	0.000000	0.000000	0.000000	0.000000	0.000000	0.000000	0.000000	0.000000	0.000000	0.000000	0.000000	0.000000	0.000000	0.000000	0.000000	0.000000	0.000000	0.000000	0.000000	0.000000	0.000000	0.000000	0.000000	0.000000	0.000000	0.000000	0.000000	0.000000	0.000000	0.000000	0.000000	0.000000	0.000000	0.000000	0.000000	0.000000	0.000000	0.000000	0.000000	0.000000	0.000000	0.000000	0.000000	0.000000	0.000000	0.000000	0.000000	0.000000	0.000000	0.000000	0.000000	0.000000	0.000000	0.000000	0.000000	0.000000	0.000000	0.000000	0.000000	0.000000	0.000000	0.000000	0.000000	0.000000	0.000000	0.000000	0.000000	0.000000	0.000000	0.000000	0.000000	0.000000	0.000000	0.000000	0.000000	0.000000	0.000000	0.000000	0.000000	0.000000	0.000000	0.000000	0.000000	0.000000	0.000000	0.000000	0.000000	0.000000	0.000000	0.000000	0.000000	0.000000	0.000000	0.000000	0.000000	0.000000	0.000000	0.000000	0.000000	0.000000	0.000000	0.000000	0.000000	0.000000	0.000000	0.000000	0.000000	0.000000	0.000000	0.000000	0.000000	0.000000	0.000000	0.000000	0.000000	0.000000	0.000000	0.000000	0.000000	0.000000	0.000000	0.000000	0.000000	0.000000	0.000000	0.000000	0.000000	0.000000	0.000000	0.000000	0.000000	0.000000	0.000000	0.000000	0.000000	0.000000	0.000000	0.000000	0.000000	0.000000	0.000000	0.000000	0.000000	0.000000	0.000000	0.000000	0.000000	0.000000	0.000000	0.000000	0.000000	0.000000	0.000000	0.000000	0.000000	0.000000	0.000000	0.000000	0.000000	0.000000	0.000000	0.000000	0.000000	0.000000	0.000000	0.000000	0.000000	0.000000	0.000000	0.000000	0.000000	0.000000	0.000000	0.000000	0.000000	0.000000	0.000000	0.000000	0.000000	0.000000	0.000000	0.000000	0.000000	0.000000	0.000000	0.000000	0.000000	0.000000	0.000000	0.000000	0.000000	0.000000	0.000000	0.000000	0.000000	0.000000	0.000000	0.000000	0.000000	0.000000	0.000000	0.000000	0.000000	0.000000	0.000000	
SCALARS radius float
LOOKUP_TABLE default
40.000000	40.000000	40.000000	40.000000	40.000000	40.000000	40.000000	40.000000	40.000000	40.000000	40.000000	40.000000	40.000000	40.000000	40.000000	40.000000	40.000000	40.000000	40.000000	40.000000	40.000000	40.000000	40.000000	40.000000	40.000000	40.000000	40.000000	40.000000	40.000000	40.000000	40.000000	40.000000	40.000000	40.000000	40.000000	40.000000	40.000000	40.000000	40.000000	40.000000	40.000000	40.000000	40.000000	40.000000	40.000000	40.000000	40.000000	40.000000	40.000000	40.000000	40.000000	40.000000	40.000000	40.000000	40.000000	40.000000	40.000000	40.000000	40.000000	40.000000	40.000000	40.000000	40.000000	40.000000	40.000000	40.000000	40.000000	40.000000	40.000000	40.000000	40.000000	40.000000	40.000000	40.000000	40.000000	40.000000	40.000000	40.000000	40.000000	40.000000	40.000000	40.000000	40.000000	40.000000	40.000000	40.000000	40.000000	40.000000	40.000000	40.000000	40.000000	40.000000	40.000000	40.000000	40.000000	40.000000	40.000000	40.000000	40.000000	40.000000	40.000000	40.000000	40.000000	40.000000	40.000000	40.000000	40.000000	40.000000	40.000000	40.000000	40.000000	40.000000	40.000000	40.000000	40.000000	40.000000	40.000000	40.000000	40.000000	40.000000	40.000000	40.000000	40.000000	40.000000	40.000000	40.000000	40.000000	40.000000	40.000000	40.000000	40.000000	40.000000	40.000000	40.000000	40.000000	40.000000	40.000000	40.000000	40.000000	40.000000	40.000000	40.000000	40.000000	40.000000	40.000000	40.000000	40.000000	40.000000	40.000000	40.000000	40.000000	40.000000	40.000000	40.000000	40.000000	40.000000	40.000000	40.000000	40.000000	40.000000	40.000000	40.000000	40.000000	40.000000	40.000000	40.000000	40.000000	40.000000	40.000000	40.000000	40.000000	40.000000	40.000000	40.000000	40.000000	40.000000	40.000000	40.000000	40.000000	40.000000	40.000000	40.000000	40.000000	40.000000	40.000000	40.000000	40.000000	40.000000	40.000000	40.000000	40.000000	40.000000	40.000000	40.000000	40.000000	40.000000	40.000000	40.000000	40.000000	40.000000	40.000000	40.000000	40.000000	40.000000	40.000000	40.000000	40.000000	40.000000	40.000000	40.000000	40.000000	40.000000	40.000000	40.000000	40.000000	40.000000	40.000000	40.000000	40.000000	40.000000	40.000000	40.000000	60.000000	60.000000	60.000000	60.000000	60.000000	60.000000	60.000000	60.000000	60.000000	60.000000	60.000000	60.000000	60.000000	60.000000	60.000000	60.000000	60.000000	60.000000	60.000000	60.000000	60.000000	60.000000	60.000000	60.000000	60.000000	60.000000	60.000000	60.000000	60.000000	60.000000	60.000000	60.000000	60.000000	60.000000	60.000000	60.000000	60.000000	60.000000	60.000000	60.000000	60.000000	60.000000	60.000000	60.000000	60.000000	60.000000	60.000000	60.000000	60.000000	60.000000	60.000000	60.000000	60.000000	60.000000	60.000000	60.000000	60.000000	60.000000	60.000000	60.000000	60.000000	60.000000	60.000000	60.000000	60.000000	60.000000	60.000000	60.000000	60.000000	60.000000	60.000000	60.000000	60.000000	60.000000	60.000000	60.000000	60.000000	60.000000	60.000000	60.000000	60.000000	60.000000	60.000000	60.000000	60.000000	60.000000	60.000000	60.000000	60.000000	60.000000	60.000000	60.000000	60.000000	60.000000	60.000000	60.000000	60.000000	60.000000	60.000000	60.000000	50.000000	50.000000	50.000000	50.000000	50.000000	50.000000	50.000000	50.000000	50.000000	50.000000	50.000000	50.000000	50.000000	50.000000	50.000000	50.000000	50.000000	50.000000	50.000000	50.000000	50.000000	50.000000	50.000000	50.000000	50.000000	50.000000	50.000000	50.000000	50.000000	50.000000	50.000000	50.000000	50.000000	50.000000	50.000000	50.000000	50.000000	50.000000	50.000000	50.000000	50.000000	50.000000	50.000000	50.000000	50.000000	50.000000	50.000000	50.000000	50.000000	50.000000	50.000000	50.000000	50.000000	50.000000	50.000000	50.000000	50.000000	50.000000	50.000000	50.000000	50.000000	50.000000	50.000000	50.000000	50.000000	50.000000	50.000000	50.000000	50.000000	50.000000	50.000000	50.000000	50.000000	50.000000	50.000000	50.000000	50.000000	50.000000	50.000000	50.000000	50.000000	50.000000	50.000000	50.000000	50.000000	50.000000	50.000000	50.000000	50.000000	50.000000	50.000000	50.000000	50.000000	50.000000	50.000000	50.000000	50.000000	50.000000	50.000000	50.000000	60.000000	60.000000	60.000000	60.000000	60.000000	60.000000	60.000000	60.000000	60.000000	60.000000	60.000000	60.000000	60.000000	60.000000	60.000000	60.000000	60.000000	60.000000	60.000000	60.000000	60.000000	60.000000	60.000000	60.000000	60.000000	60.000000	60.000000	60.000000	60.000000	60.000000	60.000000	60.000000	60.000000	60.000000	60.000000	60.000000	60.000000	60.000000	60.000000	60.000000	60.000000	60.000000	60.000000	60.000000	60.000000	60.000000	60.000000	60.000000	60.000000	60.000000	60.000000	60.000000	60.000000	60.000000	60.000000	60.000000	60.000000	60.000000	60.000000	60.000000	60.000000	60.000000	60.000000	60.000000	60.000000	60.000000	60.000000	60.000000	60.000000	60.000000	60.000000	60.000000	60.000000	60.000000	60.000000	60.000000	60.000000	60.000000	60.000000	60.000000	60.000000	60.000000	60.000000	60.000000	60.000000	60.000000	60.000000	60.000000	60.000000	60.000000	60.000000	60.000000	60.000000	60.000000	60.000000	60.000000	60.000000	60.000000	60.000000	60.000000	50.000000	50.000000	50.000000	50.000000	50.000000	50.000000	50.000000	50.000000	50.000000	50.000000	50.000000	50.000000	50.000000	50.000000	50.000000	50.000000	50.000000	50.000000	50.000000	50.000000	50.000000	50.000000	50.000000	50.000000	50.000000	50.000000	50.000000	50.000000	50.000000	50.000000	50.000000	50.000000	50.000000	50.000000	50.000000	50.000000	50.000000	50.000000	50.000000	50.000000	50.000000	50.000000	50.000000	50.000000	50.000000	50.000000	50.000000	50.000000	50.000000	50.000000	50.000000	50.000000	50.000000	50.000000	50.000000	50.000000	50.000000	50.000000	50.000000	50.000000	50.000000	50.000000	50.000000	50.000000	50.000000	50.000000	50.000000	50.000000	50.000000	50.000000	50.000000	50.000000	50.000000	50.000000	50.000000	50.000000	50.000000	50.000000	50.000000	50.000000	50.000000	50.000000	50.000000	50.000000	50.000000	50.000000	50.000000	50.000000	50.000000	50.000000	50.000000	50.000000	50.000000	50.000000	50.000000	50.000000	50.000000	50.000000	50.000000	50.000000	60.000000	60.000000	60.000000	60.000000	60.000000	60.000000	60.000000	60.000000	60.000000	60.000000	60.000000	60.000000	60.000000	60.000000	60.000000	60.000000	60.000000	60.000000	60.000000	60.000000	60.000000	60.000000	60.000000	60.000000	60.000000	60.000000	60.000000	60.000000	60.000000	60.000000	60.000000	60.000000	60.000000	60.000000	60.000000	60.000000	60.000000	60.000000	60.000000	60.000000	60.000000	60.000000	60.000000	60.000000	60.000000	60.000000	60.000000	60.000000	60.000000	60.000000	60.000000	60.000000	60.000000	60.000000	60.000000	60.000000	60.000000	60.000000	60.000000	60.000000	60.000000	60.000000	60.000000	60.000000	60.000000	60.000000	60.000000	60.000000	60.000000	60.000000	60.000000	60.000000	60.000000	60.000000	60.000000	60.000000	60.000000	60.000000	60.000000	60.000000	60.000000	60.000000	60.000000	60.000000	60.000000	60.000000	60.000000	60.000000	60.000000	60.000000	60.000000	60.000000	60.000000	60.000000	60.000000	60.000000	60.000000	60.000000	60.000000	60.000000	50.000000	50.000000	50.000000	50.000000	50.000000	50.000000	50.000000	50.000000	50.000000	50.000000	50.000000	50.000000	50.000000	50.000000	50.000000	50.000000	50.000000	50.000000	50.000000	50.000000	50.000000	50.000000	50.000000	50.000000	50.000000	50.000000	50.000000	50.000000	50.000000	50.000000	50.000000	50.000000	50.000000	50.000000	50.000000	50.000000	50.000000	50.000000	50.000000	50.000000	50.000000	50.000000	50.000000	50.000000	50.000000	50.000000	50.000000	50.000000	50.000000	50.000000	50.000000	50.000000	50.000000	50.000000	50.000000	50.000000	50.000000	50.000000	50.000000	50.000000	50.000000	50.000000	50.000000	50.000000	50.000000	50.000000	50.000000	50.000000	50.000000	50.000000	50.000000	50.000000	50.000000	50.000000	50.000000	50.000000	50.000000	50.000000	50.000000	50.000000	50.000000	50.000000	50.000000	50.000000	50.000000	50.000000	50.000000	50.000000	50.000000	50.000000	50.000000	50.000000	50.000000	50.000000	50.000000	50.000000	50.000000	50.000000	50.000000	50.000000	60.000000	60.000000	60.000000	60.000000	60.000000	60.000000	60.000000	60.000000	60.000000	60.000000	60.000000	60.000000	60.000000	60.000000	60.000000	60.000000	60.000000	60.000000	60.000000	60.000000	60.000000	60.000000	60.000000	60.000000	60.000000	60.000000	60.000000	60.000000	60.000000	60.000000	60.000000	60.000000	60.000000	60.000000	60.000000	60.000000	60.000000	60.000000	60.000000	60.000000	60.000000	60.000000	60.000000	60.000000	60.000000	60.000000	60.000000	60.000000	60.000000	60.000000	60.000000	60.000000	60.000000	60.000000	60.000000	60.000000	60.000000	60.000000	60.000000	60.000000	60.000000	60.000000	60.000000	60.000000	60.000000	60.000000	60.000000	60.000000	60.000000	60.000000	60.000000	60.000000	60.000000	60.000000	60.000000	60.000000	60.000000	60.000000	60.000000	60.000000	60.000000	60.000000	60.000000	60.000000	60.000000	60.000000	60.000000	60.000000	60.000000	60.000000	60.000000	60.000000	60.000000	60.000000	60.000000	60.000000	60.000000	60.000000	60.000000	60.000000	50.000000	50.000000	50.000000	50.000000	50.000000	50.000000	50.000000	50.000000	50.000000	50.000000	50.000000	50.000000	50.000000	50.000000	50.000000	50.000000	50.000000	50.000000	50.000000	50.000000	50.000000	50.000000	50.000000	50.000000	50.000000	50.000000	50.000000	50.000000	50.000000	50.000000	50.000000	50.000000	50.000000	50.000000	50.000000	50.000000	50.000000	50.000000	50.000000	50.000000	50.000000	50.000000	50.000000	50.000000	50.000000	50.000000	50.000000	50.000000	50.000000	50.000000	50.000000	50.000000	50.000000	50.000000	50.000000	50.000000	50.000000	50.000000	50.000000	50.000000	50.000000	50.000000	50.000000	50.000000	50.000000	50.000000	50.000000	50.000000	50.000000	50.000000	50.000000	50.000000	50.000000	50.000000	50.000000	50.000000	50.000000	50.000000	50.000000	50.000000	50.000000	50.000000	50.000000	50.000000	50.000000	50.000000	50.000000	50.000000	50.000000	50.000000	50.000000	50.000000	50.000000	50.000000	50.000000	50.000000	50.000000	50.000000	50.000000	50.000000	
SCALARS volume float
LOOKUP_TABLE default
268082.573106	268082.573106	268082.573106	268082.573106	268082.573106	268082.573106	268082.573106	268082.573106	268082.573106	268082.573106	268082.573106	268082.573106	268082.573106	268082.573106	268082.573106	268082.573106	268082.573106	268082.573106	268082.573106	268082.573106	268082.573106	268082.573106	268082.573106	268082.573106	268082.573106	268082.573106	268082.573106	268082.573106	268082.573106	268082.573106	268082.573106	268082.573106	268082.573106	268082.573106	268082.573106	268082.573106	268082.573106	268082.573106	268082.573106	268082.573106	268082.573106	268082.573106	268082.573106	268082.573106	268082.573106	268082.573106	268082.573106	268082.573106	268082.573106	268082.573106	268082.573106	268082.573106	268082.573106	268082.573106	268082.573106	268082.573106	268082.573106	268082.573106	268082.573106	268082.573106	268082.573106	268082.573106	268082.573106	268082.573106	268082.573106	268082.573106	268082.573106	268082.573106	268082.573106	268082.573106	268082.573106	268082.573106	268082.573106	268082.573106	268082.573106	268082.573106	268082.573106	268082.573106	268082.573106	268082.573106	268082.573106	268082.573106	268082.573106	268082.573106	268082.573106	268082.573106	268082.573106	268082.573106	268082.573106	268082.573106	268082.573106	268082.573106	268082.573106	268082.573106	268082.573106	268082.573106	268082.573106	268082.573106	268082.573106	268082.573106	268082.573106	268082.573106	268082.573106	268082.573106	268082.573106	268082.573106	268082.573106	268082.573106	268082.573106	268082.573106	268082.573106	268082.573106	268082.573106	268082.573106	268082.573106	268082.573106	268082.573106	268082.573106	268082.573106	268082.573106	268082.573106	268082.573106	268082.573106	268082.573106	268082.573106	268082.573106	268082.573106	268082.573106	268082.573106	268082.573106	268082.573106	268082.573106	268082.573106	268082.573106	268082.573106	268082.573106	268082.573106	268082.573106	268082.573106	268082.573106	268082.573106	268082.573106	268082.573106	268082.573106	268082.573106	268082.573106	268082.573106	268082.573106	268082.573106	268082.573106	268082.573106	268082.573106	268082.573106	268082.573106	268082.573106	268082.573106	268082.573106	268082.573106	268082.573106	268082.573106	268082.573106	268082.573106	268082.573106	268082.573106	268082.573106	268082.573106	268082.573106	268082.573106	268082.573106	268082.573106	268082.573106	268082.573106	268082.573106	268082.573106	268082.573106	268082.573106	268082.573106	268082.573106	268082.573106	268082.573106	268082.573106	268082.573106	268082.573106	268082.573106	268082.573106	268082.573106	268082.573106	268082.573106	268082.573106	268082.573106	268082.573106	268082.573106	268082.573106	268082.573106	268082.573106	268082.573106	268082.573106	268082.573106	268082.573106	268082.573106	268082.573106	268082.573106	268082.573106	268082.573106	268082.573106	268082.573106	268082.573106	268082.573106	268082.573106	268082.573106	268082.573106	268082.573106	268082.573106	268082.573106	268082.573106	268082.573106	268082.573106	268082.573106	268082.573106	268082.573106	268082.573106	268082.573106	904778.684234	904778.684234	904778.684234	904778.684234	904778.684234	904778.684234	904778.684234	904778.684234	904778.684234	904778.684234	904778.684234	904778.684234	904778.684234	904778.684234	904778.684234	904778.684234	904778.684234	904778.684234	904778.684234	904778.684234	904778.684234	904778.684234	904778.684234	904778.684234	904778.684234	904778.684234	904778.684234	904778.684234	904778.684234	904778.684234	904778.684234	904778.684234	904778.684234	904778.684234	904778.684234	904778.684234	904778.684234	904778.684234	904778.684234	904778.684234	904778.684234	904778.684234	904778.684234	904778.684234	904778.684234	904778.684234	904778.684234	904778.684234	904778.684234	904778.684234	904778.684234	904778.684234	904778.684234	904778.684234	904778.684234	904778.684234	904778.684234	904778.684234	904778.684234	904778.684234	904778.684234	904778.684234	904778.684234	904778.684234	904778.684234	904778.684234	904778.684234	904778.684234	904778.684234	904778.684234	904778.684234	904778.684234	904778.684234	904778.684234	904778.684234	904778.684234	904778.684234	904778.684234	904778.684234	904778.684234	904778.684234	904778.684234	904778.684234	904778.684234	904778.684234	904778.684234	904778.684234	904778.684234	904778.684234	904778.684234	904778.684234	904778.684234	904778.684234	904778.684234	904778.684234	904778.684234	904778.684234	904778.684234	904778.684234	904778.684234	523598.775598	523598.775598	523598.775598	523598.775598	523598.775598	523598.775598	523598.775598	523598.775598	523598.775598	523598.775598	523598.775598	523598.775598	523598.775598	523598.775598	523598.775598	523598.775598	523598.775598	523598.775598	523598.775598	523598.775598	523598.775598	523598.775598	523598.775598	523598.775598	523598.775598	523598.775598	523598.775598	523598.775598	523598.775598	523598.775598	523598.775598	523598.775598	523598.775598	523598.775598	523598.775598	523598.775598	523598.775598	523598.775598	523598.775598	523598.775598	523598.775598	523598.775598	523598.775598	523598.775598	523598.775598	523598.775598	523598.775598	523598.775598	523598.775598	523598.775598	523598.775598	523598.775598	523598.775598	523598.775598	523598.775598	523598.775598	523598.775598	523598.775598	523598.775598	523598.775598	523598.775598	523598.775598	523598.775598	523598.775598	523598.775598	523598.775598	523598.775598	523598.775598	523598.775598	523598.775598	523598.775598	523598.775598	523598.775598	523598.775598	523598.775598	523598.775598	523598.775598	523598.775598	523598.775598	523598.775598	523598.775598	523598.775598	523598.775598	523598.775598	523598.775598	523598.775598	523598.775598	523598.775598	523598.775598	523598.775598	523598.775598	523598.775598	523598.775598	523598.775598	523598.775598	523598.775598	523598.775598	523598.775598	523598.775598	523598.775598	904778.684234	904778.684234	904778.684234	904778.684234	904778.684234	904778.684234	904778.684234	904778.684234	904778.684234	904778.684234	904778.684234	904778.684234	904778.684234	904778.684234	904778.684234	904778.684234	904778.684234	904778.684234	904778.684234	904778.684234	904778.684234	904778.684234	904778.684234	904778.684234	904778.684234	904778.684234	904778.684234	904778.684234	904778.684234	904778.684234	904778.684234	904778.684234	904778.684234	904778.684234	904778.684234	904778.684234	904778.684234	904778.684234	904778.684234	904778.684234	904778.684234	904778.684234	904778.684234	904778.684234	904778.684234	904778.684234	904778.684234	904778.684234	904778.684234	904778.684234	904778.684234	904778.684234	904778.684234	904778.684234	904778.684234	904778.684234	904778.684234	904778.684234	904778.684234	904778.684234	904778.684234	904778.684234	904778.684234	904778.684234	904778.684234	904778.684234	904778.684234	904778.684234	904778.684234	904778.684234	904778.684234	904778.684234	904778.684234	904778.684234	904778.684234	904778.684234	904778.684234	904778.684234	904778.684234	904778.684234	904778.684234	904778.684234	904778.684234	904778.684234	904778.684234	904778.684234	904778.684234	904778.684234	904778.684234	904778.684234	904778.684234	904778.684234	904778.684234	904778.684234	904778.684234	904778.684234	904778.684234	904778.684234	904778.684234	904778.684234	523598.775598	523598.775598	523598.775598	523598.775598	523598.775598	523598.775598	523598.775598	523598.775598	523598.775598	523598.775598	523598.775598	523598.775598	523598.775598	523598.775598	523598.775598	523598.775598	523598.775598	523598.775598	523598.775598	523598.775598	523598.775598	523598.775598	523598.775598	523598.775598	523598.775598	523598.775598	523598.775598	523598.775598	523598.775598	523598.775598	523598.775598	523598.775598	523598.775598	523598.775598	523598.775598	523598.775598	523598.775598	523598.775598	523598.775598	523598.775598	523598.775598	523598.775598	523598.775598	523598.775598	523598.775598	523598.775598	523598.775598	523598.775598	523598.775598	523598.775598	523598.775598	523598.775598	523598.775598	523598.775598	523598.775598	523598.775598	523598.775598	523598.775598	523598.775598	523598.775598	523598.775598	523598.775598	523598.775598	523598.775598	523598.775598	523598.775598	523598.775598	523598.775598	523598.775598	523598.775598	523598.775598	523598.775598	523598.775598	523598.775598	523598.775598	523598.775598	523598.775598	523598.775598	523598.775598	523598.775598	523598.775598	523598.775598	523598.775598	523598.775598	523598.775598	523598.775598	523598.775598	523598.775598	523598.775598	523598.775598	523598.775598	523598.775598	523598.775598	523598.775598	523598.775598	523598.775598	523598.775598	523598.775598	523598.775598	523598.775598	904778.684234	904778.684234	904778.684234	904778.684234	904778.684234	904778.684234	904778.684234	904778.684234	904778.684234	904778.684234	904778.684234	904778.684234	904778.684234	904778.684234	904778.684234	904778.684234	904778.684234	904778.684234	904778.684234	904778.684234	904778.684234	904778.684234	904778.684234	904778.684234	904778.684234	904778.684234	904778.684234	904778.684234	904778.684234	904778.684234	904778.684234	904778.684234	904778.684234	904778.684234	904778.684234	904778.684234	904778.684234	904778.684234	904778.684234	904778.684234	904778.684234	904778.684234	904778.684234	904778.684234	904778.684234	904778.684234	904778.684234	904778.684234	904778.684234	904778.684234	904778.684234	904778.684234	904778.684234	904778.684234	904778.684234	904778.684234	904778.684234	904778.684234	904778.684234	904778.684234	904778.684234	904778.684234	904778.684234	904778.684234	904778.684234	904778.684234	904778.684234	904778.684234	904778.684234	904778.684234	904778.684234	904778.684234	904778.684234	904778.684234	904778.684234	904778.684234	904778.684234	904778.684234	904778.684234	904778.684234	904778.684234	904778.684234	904778.684234	904778.684234	904778.684234	904778.684234	904778.684234	904778.684234	904778.684234	904778.684234	904778.684234	904778.684234	904778.684234	904778.684234	904778.684234	904778.684234	904778.684234	904778.684234	904778.684234	904778.684234	523598.775598	523598.775598	523598.775598	523598.775598	523598.775598	523598.775598	523598.775598	523598.775598	523598.775598	523598.775598	523598.775598	523598.775598	523598.775598	523598.775598	523598.775598	523598.775598	523598.775598	523598.775598	523598.775598	523598.775598	523598.775598	523598.775598	523598.775598	523598.775598	523598.775598	523598.775598	523598.775598	523598.775598	523598.775598	523598.775598	523598.775598	523598.775598	523598.775598	523598.775598	523598.775598	523598.775598	523598.775598	523598.775598	523598.775598	523598.775598	523598.775598	523598.775598	523598.775598	523598.775598	523598.775598	523598.775598	523598.775598	523598.775598	523598.775598	523598.775598	523598.775598	523598.775598	523598.775598	523598.775598	523598.775598	523598.775598	523598.775598	523598.775598	523598.775598	523598.775598	523598.775598	523598.775598	523598.775598	523598.775598	523598.775598	523598.775598	523598.775598	523598.775598	523598.775598	523598.775598	523598.775598	523598.775598	523598.775598	523598.775598	523598.775598	523598.775598	523598.775598	523598.775598	523598.775598	523598.775598	523598.775598	523598.775598	523598.775598	523598.775598	523598.775598	523598.775598	523598.775598	523598.775598	523598.775598	523598.775598	523598.775598	523598.775598	523598.775598	523598.775598	523598.775598	523598.775598	523598.775598	523598.775598	523598.775598	523598.775598	904778.684234	904778.684234	904778.684234	904778.684234	904778.684234	904778.684234	904778.684234	904778.684234	904778.684234	904778.684234	904778.684234	904778.684234	904778.684234	904778.684234	904778.684234	904778.684234	904778.684234	904778.684234	904778.684234	904778.684234	904778.684234	904778.684234	904778.684234	904778.684234	904778.684234	904778.684234	904778.684234	904778.684234	904778.684234	904778.684234	904778.684234	904778.684234	904778.684234	904778.684234	904778.684234	904778.684234	904778.684234	904778.684234	904778.684234	904778.684234	904778.684234	904778.684234	904778.684234	904778.684234	904778.684234	904778.684234	904778.684234	904778.684234	904778.684234	904778.684234	904778.684234	904778.684234	904778.684234	904778.684234	904778.684234	904778.684234	904778.684234	904778.684234	904778.684234	904778.684234	904778.684234	904778.684234	904778.684234	904778.684234	904778.684234	904778.684234	904778.684234	904778.684234	904778.684234	904778.684234	904778.684234	904778.684234	904778.684234	904778.684234	904778.684234	904778.684234	904778.684234	904778.684234	904778.684234	904778.684234	904778.684234	904778.684234	904778.684234	904778.684234	904778.684234	904778.684234	904778.684234	904778.684234	904778.684234	904778.684234	904778.684234	904778.684234	904778.684234	904778.684234	904778.684234	904778.684234	904778.684234	904778.684234	904778.684234	904778.684234	523598.775598	523598.775598	523598.775598	523598.775598	523598.775598	523598.775598	523598.775598	523598.775598	523598.775598	523598.775598	523598.775598	523598.775598	523598.775598	523598.775598	523598.775598	523598.775598	523598.775598	523598.775598	523598.775598	523598.775598	523598.775598	523598.775598	523598.775598	523598.775598	523598.775598	523598.775598	523598.775598	523598.775598	523598.775598	523598.775598	523598.775598	523598.775598	523598.775598	523598.775598	523598.775598	523598.775598	523598.775598	523598.775598	523598.775598	523598.775598	523598.775598	523598.775598	523598.775598	523598.775598	523598.775598	523598.775598	523598.775598	523598.775598	523598.775598	523598.775598	523598.775598	523598.775598	523598.775598	523598.775598	523598.775598	523598.775598	523598.775598	523598.775598	523598.775598	523598.775598	523598.775598	523598.775598	523598.775598	523598.775598	523598.775598	523598.775598	523598.775598	523598.775598	523598.775598	523598.775598	523598.775598	523598.775598	523598.775598	523598.775598	523598.775598	523598.775598	523598.775598	523598.775598	523598.775598	523598.775598	523598.775598	523598.775598	523598.775598	523598.775598	523598.775598	523598.775598	523598.775598	523598.775598	523598.775598	523598.775598	523598.775598	523598.775598	523598.775598	523598.775598	523598.775598	523598.775598	523598.775598	523598.775598	523598.775598	523598.775598	
SCALARS mass float
LOOKUP_TABLE default
670206432.765823	670206432.765823	670206432.765823	670206432.765823	670206432.765823	670206432.765823	670206432.765823	670206432.765823	670206432.765823	670206432.765823	670206432.765823	670206432.765823	670206432.765823	670206432.765823	670206432.765823	670206432.765823	670206432.765823	670206432.765823	670206432.765823	670206432.765823	670206432.765823	670206432.765823	670206432.765823	670206432.765823	670206432.765823	670206432.765823	670206432.765823	670206432.765823	670206432.765823	670206432.765823	670206432.765823	670206432.765823	670206432.765823	670206432.765823	670206432.765823	670206432.765823	670206432.765823	670206432.765823	670206432.765823	670206432.765823	670206432.765823	670206432.765823	670206432.765823	670206432.765823	670206432.765823	670206432.765823	670206432.765823	670206432.765823	670206432.765823	670206432.765823	670206432.765823	670206432.765823	670206432.765823	670206432.765823	670206432.765823	670206432.765823	670206432.765823	670206432.765823	670206432.765823	670206432.765823	670206432.765823	670206432.765823	670206432.765823	670206432.765823	670206432.765823	670206432.765823	670206432.765823	670206432.765823	670206432.765823	670206432.765823	670206432.765823	670206432.765823	670206432.765823	670206432.765823	670206432.765823	670206432.765823	670206432.765823	670206432.765823	670206432.765823	670206432.765823	670206432.765823	670206432.765823	670206432.765823	670206432.765823	670206432.765823	670206432.765823	670206432.765823	670206432.765823	670206432.765823	670206432.765823	670206432.765823	670206432.765823	670206432.765823	670206432.765823	670206432.765823	670206432.765823	670206432.765823	670206432.765823	670206432.765823	670206432.765823	670206432.765823	670206432.765823	670206432.765823	670206432.765823	670206432.765823	670206432.765823	670206432.765823	670206432.765823	670206432.765823	670206432.765823	670206432.765823	670206432.765823	670206432.765823	670206432.765823	670206432.765823	670206432.765823	670206432.765823	670206432.765823	670206432.765823	670206432.765823	670206432.765823	670206432.765823	670206432.765823	670206432.765823	670206432.765823	670206432.765823	670206432.765823	670206432.765823	670206432.765823	670206432.765823	670206432.765823	670206432.765823	670206432.765823	670206432.765823	670206432.765823	670206432.765823	670206432.765823	670206432.765823	670206432.765823	670206432.765823	670206432.765823	670206432.765823	670206432.765823	670206432.765823	670206432.765823	670206432.765823	670206432.765823	670206432.765823	670206432.765823	670206432.765823	670206432.765823	670206432.765823	670206432.765823	670206432.765823	670206432.765823	670206432.765823	670206432.765823	670206432.765823	670206432.765823	670206432.765823	670206432.765823	670206432.765823	670206432.765823	670206432.765823	670206432.765823	670206432.765823	670206432.765823	670206432.765823	670206432.765823	670206432.765823	670206432.765823	670206432.765823	670206432.765823	670206432.765823	670206432.765823	670206432.765823	670206432.765823	670206432.765823	670206432.765823	670206432.765823	670206432.765823	670206432.765823	670206432.765823	670206432.765823	670206432.765823	670206432.765823	670206432.765823	670206432.765823	670206432.765823	670206432.765823	670206432.765823	670206432.765823	670206432.765823	670206432.765823	670206432.765823	670206432.765823	670206432.765823	670206432.765823	670206432.765823	670206432.765823	670206432.765823	670206432.765823	670206432.765823	670206432.765823	670206432.765823	670206432.765823	670206432.765823	670206432.765823	670206432.765823	670206432.765823	670206432.765823	670206432.765823	670206432.765823	670206432.765823	670206432.765823	670206432.765823	670206432.765823	670206432.765823	670206432.765823	670206432.765823	670206432.765823	670206432.765823	2261946710.584651	2261946710.584651	2261946710.584651	2261946710.584651	2261946710.584651	2261946710.584651	2261946710.584651	2261946710.584651	2261946710.584651	2261946710.584651	2261946710.584651	2261946710.584651	2261946710.584651	2261946710.584651	2261946710.584651	2261946710.584651	2261946710.584651	2261946710.584651	2261946710.584651	2261946710.584651	2261946710.584651	2261946710.584651	2261946710.584651	2261946710.584651	2261946710.584651	2261946710.584651	2261946710.584651	2261946710.584651	2261946710.584651	2261946710.584651	2261946710.584651	2261946710.584651	2261946710.584651	2261946710.584651	2261946710.584651	2261946710.584651	2261946710.584651	2261946710.584651	2261946710.584651	2261946710.584651	2261946710.584651	2261946710.584651	2261946710.584651	2261946710.584651	2261946710.584651	2261946710.584651	2261946710.584651	2261946710.584651	2261946710.584651	2261946710.584651	2261946710.584651	2261946710.584651	2261946710.584651	2261946710.584651	2261946710.584651	2261946710.584651	2261946710.584651	2261946710.584651	2261946710.584651	2261946710.584651	2261946710.584651	2261946710.584651	2261946710.584651	2261946710.584651	2261946710.584651	2261946710.584651	2261946710.584651	2261946710.584651	2261946710.584651	2261946710.584651	2261946710.584651	2261946710.584651	2261946710.584651	2261946710.584651	2261946710.584651	2261946710.584651	2261946710.584651	2261946710.584651	2261946710.584651	2261946710.584651	2261946710.584651	2261946710.584651	2261946710.584651	2261946710.584651	2261946710.584651	2261946710.584651	2261946710.584651	2261946710.584651	2261946710.584651	2261946710.584651	2261946710.584651	2261946710.584651	2261946710.584651	2261946710.584651	2261946710.584651	2261946710.584651	2261946710.584651	2261946710.584651	2261946710.584651	2261946710.584651	1308996938.995747	1308996938.995747	1308996938.995747	1308996938.995747	1308996938.995747	1308996938.995747	1308996938.995747	1308996938.995747	1308996938.995747	1308996938.995747	1308996938.995747	1308996938.995747	1308996938.995747	1308996938.995747	1308996938.995747	1308996938.995747	1308996938.995747	1308996938.995747	1308996938.995747	1308996938.995747	1308996938.995747	1308996938.995747	1308996938.995747	1308996938.995747	1308996938.995747	1308996938.995747	1308996938.995747	1308996938.995747	1308996938.995747	1308996938.995747	1308996938.995747	1308996938.995747	1308996938.995747	1308996938.995747	1308996938.995747	1308996938.995747	1308996938.995747	1308996938.995747	1308996938.995747	1308996938.995747	1308996938.995747	1308996938.995747	1308996938.995747	1308996938.995747	1308996938.995747	1308996938.995747	1308996938.995747	1308996938.995747	1308996938.995747	1308996938.995747	1308996938.995747	1308996938.995747	1308996938.995747	1308996938.995747	1308996938.995747	1308996938.995747	1308996938.995747	1308996938.995747	1308996938.995747	1308996938.995747	1308996938.995747	1308996938.995747	1308996938.995747	1308996938.995747	1308996938.995747	1308996938.995747	1308996938.995747	1308996938.995747	1308996938.995747	1308996938.995747	1308996938.995747	1308996938.995747	1308996938.995747	1308996938.995747	1308996938.995747	1308996938.995747	1308996938.995747	1308996938.995747	1308996938.995747	1308996938.995747	1308996938.995747	1308996938.995747	1308996938.995747	1308996938.995747	1308996938.995747	1308996938.995747	1308996938.995747	1308996938.995747	1308996938.995747	1308996938.995747	1308996938.995747	1308996938.995747	1308996938.995747	1308996938.995747	1308996938.995747	1308996938.995747	1308996938.995747	1308996938.995747	1308996938.995747	1308996938.995747	2261946710.584651	2261946710.584651	2261946710.584651	2261946710.584651	2261946710.584651	2261946710.584651	2261946710.584651	2261946710.584651	2261946710.584651	2261946710.584651	2261946710.584651	2261946710.584651	2261946710.584651	2261946710.584651	2261946710.584651	2261946710.584651	2261946710.584651	2261946710.584651	2261946710.584651	2261946710.584651	2261946710.584651	2261946710.584651	2261946710.584651	2261946710.584651	2261946710.584651	2261946710.584651	2261946710.584651	2261946710.584651	2261946710.584651	2261946710.584651	2261946710.584651	2261946710.584651	2261946710.584651	2261946710.584651	2261946710.584651	2261946710.584651	2261946710.584651	2261946710.584651	2261946710.584651	2261946710.584651	2261946710.584651	2261946710.584651	2261946710.584651	2261946710.584651	2261946710.584651	2261946710.584651	2261946710.584651	2261946710.584651	2261946710.584651	2261946710.584651	2261946710.584651	2261946710.584651	2261946710.584651	2261946710.584651	2261946710.584651	2261946710.584651	2261946710.584651	2261946710.584651	2261946710.584651	2261946710.584651	2261946710.584651	2261946710.584651	2261946710.584651	2261946710.584651	2261946710.584651	2261946710.584651	2261946710.584651	2261946710.584651	2261946710.584651	2261946710.584651	2261946710.584651	2261946710.584651	2261946710.584651	2261946710.584651	2261946710.584651	2261946710.584651	2261946710.584651	2261946710.584651	2261946710.584651	2261946710.584651	2261946710.584651	2261946710.584651	2261946710.584651	2261946710.584651	2261946710.584651	2261946710.584651	2261946710.584651	2261946710.584651	2261946710.584651	2261946710.584651	2261946710.584651	2261946710.584651	2261946710.584651	2261946710.584651	2261946710.584651	2261946710.584651	2261946710.584651	2261946710.584651	2261946710.584651	2261946710.584651	1308996938.995747	1308996938.995747	1308996938.995747	1308996938.995747	1308996938.995747	1308996938.995747	1308996938.995747	1308996938.995747	1308996938.995747	1308996938.995747	1308996938.995747	1308996938.995747	1308996938.995747	1308996938.995747	1308996938.995747	1308996938.995747	1308996938.995747	1308996938.995747	1308996938.995747	1308996938.995747	1308996938.995747	1308996938.995747	1308996938.995747	1308996938.995747	1308996938.995747	1308996938.995747	1308996938.995747	1308996938.995747	1308996938.995747	1308996938.995747	1308996938.995747	1308996938.995747	1308996938.995747	1308996938.995747	1308996938.995747	1308996938.995747	1308996938.995747	1308996938.995747	1308996938.995747	1308996938.995747	1308996938.995747	1308996938.995747	1308996938.995747	1308996938.995747	1308996938.995747	1308996938.995747	1308996938.995747	1308996938.995747	1308996938.995747	1308996938.995747	1308996938.995747	1308996938.995747	1308996938.995747	1308996938.995747	1308996938.995747	1308996938.995747	1308996938.995747	1308996938.995747	1308996938.995747	1308996938.995747	1308996938.995747	1308996938.995747	1308996938.995747	1308996938.995747	1308996938.995747	1308996938.995747	1308996938.995747	1308996938.995747	1308996938.995747	1308996938.995747	1308996938.995747	1308996938.995747	1308996938.995747	1308996938.995747	1308996938.995747	1308996938.995747	1308996938.995747	1308996938.995747	1308996938.995747	1308996938.995747	1308996938.995747	1308996938.995747	1308996938.995747	1308996938.995747	1308996938.995747	1308996938.995747	1308996938.995747	1308996938.995747	1308996938.995747	1308996938.995747	1308996938.995747	1308996938.995747	1308996938.995747	1308996938.995747	1308996938.995747	1308996938.995747	1308996938.995747	1308996938.995747	1308996938.995747	1308996938.995747	2261946710.584651	2261946710.584651	2261946710.584651	2261946710.584651	2261946710.584651	2261946710.584651	2261946710.584651	2261946710.584651	2261946710.584651	2261946710.584651	2261946710.584651	2261946710.584651	2261946710.584651	2261946710.584651	2261946710.584651	2261946710.584651	2261946710.584651	2261946710.584651	2261946710.584651	2261946710.584651	2261946710.584651	2261946710.584651	2261946710.584651	2261946710.584651	2261946710.584651	2261946710.584651	2261946710.584651	2261946710.584651	2261946710.584651	2261946710.584651	2261946710.584651	2261946710.584651	2261946710.584651	2261946710.584651	2261946710.584651	2261946710.584651	2261946710.584651	2261946710.584651	2261946710.584651	2261946710.584651	2261946710.584651	2261946710.584651	2261946710.584651	2261946710.584651	2261946710.584651	2261946710.584651	2261946710.584651	2261946710.584651	2261946710.584651	2261946710.584651	2261946710.584651	2261946710.584651	2261946710.584651	2261946710.584651	2261946710.584651	2261946710.584651	2261946710.584651	2261946710.584651	2261946710.584651	2261946710.584651	2261946710.584651	2261946710.584651	2261946710.584651	2261946710.584651	2261946710.584651	2261946710.584651	2261946710.584651	2261946710.584651	2261946710.584651	2261946710.584651	2261946710.584651	2261946710.584651	2261946710.584651	2261946710.584651	2261946710.584651	2261946710.584651	2261946710.584651	2261946710.584651	2261946710.584651	2261946710.584651	2261946710.584651	2261946710.584651	2261946710.584651	2261946710.584651	2261946710.584651	2261946710.584651	2261946710.584651	2261946710.584651	2261946710.584651	2261946710.584651	2261946710.584651	2261946710.584651	2261946710.584651	2261946710.584651	2261946710.584651	2261946710.584651	2261946710.584651	2261946710.584651	2261946710.584651	2261946710.584651	1308996938.995747	1308996938.995747	1308996938.995747	1308996938.995747	1308996938.995747	1308996938.995747	1308996938.995747	1308996938.995747	1308996938.995747	1308996938.995747	1308996938.995747	1308996938.995747	1308996938.995747	1308996938.995747	1308996938.995747	1308996938.995747	1308996938.995747	1308996938.995747	1308996938.995747	1308996938.995747	1308996938.995747	1308996938.995747	1308996938.995747	1308996938.995747	1308996938.995747	1308996938.995747	1308996938.995747	1308996938.995747	1308996938.995747	1308996938.995747	1308996938.995747	1308996938.995747	1308996938.995747	1308996938.995747	1308996938.995747	1308996938.995747	1308996938.995747	1308996938.995747	1308996938.995747	1308996938.995747	1308996938.995747	1308996938.995747	1308996938.995747	1308996938.995747	1308996938.995747	1308996938.995747	1308996938.995747	1308996938.995747	1308996938.995747	1308996938.995747	1308996938.995747	1308996938.995747	1308996938.995747	1308996938.995747	1308996938.995747	1308996938.995747	1308996938.995747	1308996938.995747	1308996938.995747	1308996938.995747	1308996938.995747	1308996938.995747	1308996938.995747	1308996938.995747	1308996938.995747	1308996938.995747	1308996938.995747	1308996938.995747	1308996938.995747	1308996938.995747	1308996938.995747	1308996938.995747	1308996938.995747	1308996938.995747	1308996938.995747	1308996938.995747	1308996938.995747	1308996938.995747	1308996938.995747	1308996938.995747	1308996938.995747	1308996938.995747	1308996938.995747	1308996938.995747	1308996938.995747	1308996938.995747	1308996938.995747	1308996938.995747	1308996938.995747	1308996938.995747	1308996938.995747	1308996938.995747	1308996938.995747	1308996938.995747	1308996938.995747	1308996938.995747	1308996938.995747	1308996938.995747	1308996938.995747	1308996938.995747	2261946710.584651	2261946710.584651	2261946710.584651	2261946710.584651	2261946710.584651	2261946710.584651	2261946710.584651	2261946710.584651	2261946710.584651	2261946710.584651	2261946710.584651	2261946710.584651	2261946710.584651	2261946710.584651	2261946710.584651	2261946710.584651	2261946710.584651	2261946710.584651	2261946710.584651	2261946710.584651	2261946710.584651	2261946710.584651	2261946710.584651	2261946710.584651	2261946710.584651	2261946710.584651	2261946710.584651	2261946710.584651	2261946710.584651	2261946710.584651	2261946710.584651	2261946710.584651	2261946710.584651	2261946710.584651	2261946710.584651	2261946710.584651	2261946710.584651	2261946710.584651	2261946710.584651	2261946710.584651	2261946710.584651	2261946710.584651	2261946710.584651	2261946710.584651	2261946710.584651	2261946710.584651	2261946710.584651	2261946710.584651	2261946710.584651	2261946710.584651	2261946710.584651	2261946710.584651	2261946710.584651	2261946710.584651	2261946710.584651	2261946710.584651	2261946710.584651	2261946710.584651	2261946710.584651	2261946710.584651	2261946710.584651	2261946710.584651	2261946710.584651	2261946710.584651	2261946710.584651	2261946710.584651	2261946710.584651	2261946710.584651	2261946710.584651	2261946710.584651	2261946710.584651	2261946710.584651	2261946710.584651	2261946710.584651	2261946710.584651	2261946710.584651	2261946710.584651	2261946710.584651	2261946710.584651	2261946710.584651	2261946710.584651	2261946710.584651	2261946710.584651	2261946710.584651	2261946710.584651	2261946710.584651	2261946710.584651	2261946710.584651	2261946710.584651	2261946710.584651	2261946710.584651	2261946710.584651	2261946710.584651	2261946710.584651	2261946710.584651	2261946710.584651	2261946710.584651	2261946710.584651	2261946710.584651	2261946710.584651	1308996938.995747	1308996938.995747	1308996938.995747	1308996938.995747	1308996938.995747	1308996938.995747	1308996938.995747	1308996938.995747	1308996938.995747	1308996938.995747	1308996938.995747	1308996938.995747	1308996938.995747	1308996938.995747	1308996938.995747	1308996938.995747	1308996938.995747	1308996938.995747	1308996938.995747	1308996938.995747	1308996938.995747	1308996938.995747	1308996938.995747	1308996938.995747	1308996938.995747	1308996938.995747	1308996938.995747	1308996938.995747	1308996938.995747	1308996938.995747	1308996938.995747	1308996938.995747	1308996938.995747	1308996938.995747	1308996938.995747	1308996938.995747	1308996938.995747	1308996938.995747	1308996938.995747	1308996938.995747	1308996938.995747	1308996938.995747	1308996938.995747	1308996938.995747	1308996938.995747	1308996938.995747	1308996938.995747	1308996938.995747	1308996938.995747	1308996938.995747	1308996938.995747	1308996938.995747	1308996938.995747	1308996938.995747	1308996938.995747	1308996938.995747	1308996938.995747	1308996938.995747	1308996938.995747	1308996938.995747	1308996938.995747	1308996938.995747	1308996938.995747	1308996938.995747	1308996938.995747	1308996938.995747	1308996938.995747	1308996938.995747	1308996938.995747	1308996938.995747	1308996938.995747	1308996938.995747	1308996938.995747	1308996938.995747	1308996938.995747	1308996938.995747	1308996938.995747	1308996938.995747	1308996938.995747	1308996938.995747	1308996938.995747	1308996938.995747	1308996938.995747	1308996938.995747	1308996938.995747	1308996938.995747	1308996938.995747	1308996938.995747	1308996938.995747	1308996938.995747	1308996938.995747	1308996938.995747	1308996938.995747	1308996938.995747	1308996938.995747	1308996938.995747	1308996938.995747	1308996938.995747	1308996938.995747	1308996938.995747	
SCALARS kinetic float
LOOKUP_TABLE default
0.000000	0.000000	0.000000	0.000000	0.000000	0.000000	0.000000	0.000000	0.000000	0.000000	0.000000	0.000000	0.000000	0.000000	0.000000	0.000000	0.000000	0.000000	0.000000	0.000000	0.000000	0.000000	0.000000	0.000000	0.000000	0.000000	0.000000	0.000000	0.000000	0.000000	0.000000	0.000000	0.000000	0.000000	0.000000	0.000000	0.000000	0.000000	0.000000	0.000000	0.000000	0.000000	0.000000	0.000000	0.000000	0.000000	0.000000	0.000000	0.000000	0.000000	0.000000	0.000000	0.000000	0.000000	0.000000	0.000000	0.000000	0.000000	0.000000	0.000000	0.000000	0.000000	0.000000	0.000000	0.000000	0.000000	0.000000	0.000000	0.000000	0.000000	0.000000	0.000000	0.000000	0.000000	0.000000	0.000000	0.000000	0.000000	0.000000	0.000000	0.000000	0.000000	0.000000	0.000000	0.000000	0.000000	0.000000	0.000000	0.000000	0.000000	0.000000	0.000000	0.000000	0.000000	0.000000	0.000000	0.000000	0.000000	0.000000	0.000000	0.000000	0.000000	0.000000	0.000000	0.000000	0.000000	0.000000	0.000000	0.000000	0.000000	0.000000	0.000000	0.000000	0.000000	0.000000	0.000000	0.000000	0.000000	0.000000	0.000000	0.000000	0.000000	0.000000	0.000000	0.000000	0.000000	0.000000	0.000000	0.000000	0.000000	0.000000	0.000000	0.000000	0.000000	0.000000	0.000000	0.000000	0.000000	0.000000	0.000000	0.000000	0.000000	0.000000	0.000000	0.000000	0.000000	0.000000	0.000000	0.000000	0.000000	0.000000	0.000000	0.000000	0.000000	0.000000	0.000000	0.000000	0.000000	0.000000	0.000000	0.000000	0.000000	0.000000	0.000000	0.000000	0.000000	0.000000	0.000000	0.000000	0.000000	0.000000	0.000000	0.000000	0.000000	0.000000	0.000000	0.000000	0.000000	0.000000	0.000000	0.000000	0.000000	0.000000	0.000000	0.000000	0.000000	0.000000	0.000000	0.000000	0.000000	0.000000	0.000000	0.000000	0.000000	0.000000	0.000000	0.000000	0.000000	0.000000	0.000000	0.000000	0.000000	0.000000	0.000000	0.000000	0.000000	0.000000	0.000000	0.000000	0.000000	0.000000	0.000000	0.000000	0.000000	0.000000	0.000000	0.000000	0.000000	0.000000	0.000000	0.000000	0.000000	0.000360	0.039014	0.001883	0.000088	0.004847	0.036875	0.000622	0.001667	0.001260	0.006302	0.024877	0.006316	0.012427	0.011649	0.026693	0.000333	0.002268	0.000112	0.009841	0.012335	0.002600	0.000635	0.000039	0.002053	0.011038	0.007410	0.009207	0.012800	0.001097	0.000206	0.002717	0.005255	0.004849	0.001887	0.006702	0.003974	0.007405	0.001501	0.009842	0.001480	0.006199	0.000430	0.001908	0.014305	0.006573	0.000711	0.000731	0.001482	0.000080	0.005806	0.002634	0.002199	0.004374	0.000789	0.005282	0.001769	0.002625	0.007196	0.001632	0.001188	0.013164	0.001653	0.000439	0.000185	0.001016	0.000687	0.020511	0.002137	0.000130	0.001799	0.000757	0.018385	0.021834	0.000377	0.003763	0.039313	0.000252	0.000326	0.027353	0.001614	0.007586	0.012089	0.000992	0.002180	0.007819	0.003308	0.002911	0.006405	0.001667	0.008692	0.000863	0.004942	0.000387	0.000310	0.000154	0.003179	0.001742	0.000320	0.014834	0.000253	0.007077	0.001387	0.003970	0.023190	0.015141	0.014729	0.000321	0.023624	0.005759	0.000150	0.000916	0.007868	0.005245	0.000390	0.000286	0.000053	0.002750	0.011917	0.004117	0.007879	0.015761	0.004048	0.003117	0.018192	0.007628	0.005396	0.005328	0.005674	0.011525	0.000717	0.000220	0.008856	0.006739	0.026197	0.010704	0.002847	0.006933	0.005372	0.003881	0.002650	0.007157	0.002209	0.019957	0.000165	0.001171	0.000647	0.002701	0.007401	0.000813	0.007330	0.002514	0.004681	0.000229	0.009896	0.000943	0.000342	0.011884	0.002940	0.001323	0.012206	0.009784	0.002568	0.000300	0.002703	0.000881	0.012122	0.007572	0.001458	0.000448	0.005099	0.003142	0.013403	0.005705	0.002909	0.050832	0.004322	0.000866	0.000438	0.014882	0.011273	0.000802	0.001100	0.005527	0.001720	0.000606	0.000160	0.000672	0.017615	0.006380	0.001613	0.003346	0.012467	0.005055	0.009919	0.006448	0.004154	0.007157	0.001910	0.008503	0.000530	0.000385	0.023941	0.017569	0.010676	0.002818	0.004618	0.003119	0.016613	0.002440	0.004721	0.005915	0.000964	0.002925	0.000156	0.006160	0.000549	0.001838	0.009046	0.005957	0.000398	0.009181	0.000630	0.000348	0.001563	0.006057	0.008298	0.010736	0.001067	0.003281	0.032167	0.011546	0.008641	0.021999	0.001665	0.000095	0.012041	0.027950	0.041878	0.004523	0.006587	0.000829	0.003147	0.008026	0.011351	0.040868	0.002629	0.002545	0.009095	0.000245	0.002999	0.000336	0.009155	0.027228	0.020252	0.008294	0.000334	0.000560	0.076710	0.000395	0.005210	0.005139	0.037079	0.004819	0.019751	0.010142	0.002576	0.006600	0.000225	0.001868	0.006845	0.010716	0.000825	0.027419	0.011545	0.004298	0.028019	0.001250	0.009017	0.006221	0.000139	0.001147	0.000249	0.010288	0.002449	0.004387	0.014695	0.019771	0.000304	0.000595	0.000465	0.000091	0.049265	0.001893	0.001714	0.004569	0.009504	0.004327	0.008454	0.025713	0.000189	0.003548	0.005461	0.120962	0.015016	0.001691	0.003071	0.002246	0.002353	0.017157	0.004603	0.001933	0.007061	0.000269	0.012127	0.001963	0.003224	0.003697	0.000260	0.007485	0.000085	0.001273	0.000345	0.000008	0.009426	0.025116	0.001212	0.026481	0.001812	0.001189	0.007370	0.002137	0.002042	0.005596	0.005332	0.007155	0.000938	0.000970	0.019642	0.004109	0.020414	0.000303	0.012150	0.003024	0.001408	0.008520	0.006702	0.001156	0.000699	0.004722	0.003395	0.002305	0.000587	0.005945	0.000936	0.000780	0.019151	0.003215	0.031322	0.002999	0.003659	0.010785	0.000574	0.002421	0.002366	0.024692	0.004425	0.010389	0.003326	0.006760	0.001477	0.005273	0.006405	0.002744	0.020428	0.009307	0.011675	0.001768	0.006574	0.001784	0.002160	0.023036	0.001033	0.005423	0.011361	0.009927	0.003100	0.001922	0.008275	0.005757	0.011405	0.000489	0.003110	0.001207	0.016793	0.024804	0.000263	0.009268	0.000427	0.004796	0.006331	0.022414	0.039804	0.025991	0.031433	0.003099	0.000307	0.036900	0.001118	0.001483	0.016880	0.003356	0.007899	0.001278	0.051189	0.013675	0.000548	0.002372	0.019523	0.000842	0.037857	0.005274	0.031637	0.010363	0.048630	0.025093	0.000201	0.003372	0.010326	0.000519	0.002975	0.003543	0.007112	0.021360	0.009892	0.001054	0.035320	0.000358	0.046280	0.002637	0.007599	0.045738	0.001177	0.032078	0.026830	0.012316	0.000379	0.035407	0.019777	0.010341	0.002050	0.001921	0.000602	0.001010	0.001109	0.002297	0.043150	0.013326	0.003920	0.039153	0.011964	0.008539	0.013561	0.030818	0.002883	0.010826	0.079665	0.042464	0.010295	0.002083	0.030718	0.001620	0.005495	0.004003	0.000167	0.028258	0.012699	0.024195	0.004226	0.000224	0.006382	0.000992	0.034818	0.000630	0.001014	0.004201	0.001096	0.007540	0.057626	0.001654	0.055453	0.001601	0.033644	0.039653	0.008591	0.000045	0.010980	0.010973	0.040121	0.010020	0.006547	0.008412	0.065902	0.028632	0.004642	0.010632	0.006491	0.009184	0.000901	0.000376	0.014058	0.019875	0.003558	0.006506	0.016175	0.004716	0.018459	0.001519	0.003313	0.000193	0.043853	0.002539	0.001282	0.001877	0.002972	0.001261	0.007452	0.002805	0.000009	0.009064	0.000477	0.014210	0.000200	0.003697	0.000186	0.001494	0.001148	0.021625	0.000084	0.000985	0.002269	0.002157	0.019801	0.012891	0.004184	0.000554	0.005693	0.002221	0.001260	0.021179	0.017063	0.002992	0.015255	0.003569	0.004521	0.000487	0.001318	0.024477	0.009509	0.000879	0.005288	0.002651	0.001891	0.001821	0.010005	0.009764	0.006889	0.000380	0.000406	0.000234	0.003455	0.005031	0.006252	0.001095	0.002941	0.019545	0.009393	0.014056	0.015304	0.020987	0.002263	0.000558	0.002245	0.000223	0.001668	0.004988	0.005100	0.020334	0.019082	0.002154	0.025120	0.010728	0.005413	0.039149	0.002806	0.000421	0.001186	0.000148	0.009508	0.002717	0.022301	0.020205	0.014465	0.080039	0.010045	0.039733	0.022831	0.036351	0.024327	0.061219	0.039867	0.046087	0.030963	0.007203	0.050059	0.010761	0.001005	0.050338	0.080621	0.008003	0.032281	0.053552	0.046536	0.040483	0.042229	0.047817	0.044610	0.014650	0.016302	0.003764	0.028393	0.004659	0.071649	0.006695	0.041726	0.049244	0.040843	0.063887	0.017551	0.000355	0.048191	0.038998	0.033299	0.000729	0.011794	0.029340	0.076742	0.009554	0.035457	0.030502	0.047364	0.064991	0.010258	0.078001	0.024947	0.003468	0.062105	0.041514	0.037789	0.004833	0.051261	0.078416	0.009348	0.071120	0.010124	0.003313	0.005974	0.029707	0.009018	0.007969	0.002216	0.042011	0.043395	0.030364	0.043122	0.002922	0.008124	0.050858	0.038508	0.039087	0.033644	0.002782	0.036976	0.039947	0.071979	0.041113	0.034753	0.009306	0.030193	0.006085	0.010057	0.007946	0.006288	0.009284	0.045960	0.023821	0.046374	0.037558	0.041395	0.036098	0.045933	0.001556	0.000522	0.021938	0.030896	0.004419	0.013327	0.011182	0.009010	0.011652	0.022258	0.001330	0.001312	0.034051	0.021994	0.015993	0.020846	0.026074	0.002718	0.003565	0.016373	0.007896	0.023639	0.016360	0.005421	0.001624	0.001747	0.015322	0.008316	0.033273	0.003178	0.010754	0.003156	0.002100	0.009807	0.001709	0.000658	0.032014	0.020738	0.025524	0.023346	0.008235	0.022012	0.028041	0.000168	0.001004	0.000587	0.013288	0.007680	0.008082	0.024485	0.032837	0.006807	0.037408	0.029272	0.011586	0.000669	0.012317	0.019516	0.007747	0.002832	0.000016	0.022614	0.000303	0.035399	0.027186	0.004368	0.008331	0.000928	0.005898	0.005599	0.023373	0.040911	0.030913	0.030328	0.046912	0.037265	0.022196	0.011891	0.023320	0.014097	0.022065	0.071315	0.000159	0.023432	0.000438	0.005454	0.047526	0.017625	0.002182	0.002845	0.001473	0.017442	0.026003	0.021066	0.023766	0.001014	0.016770	0.024088	0.008163	0.023808	
SCALARS momentum float
LOOKUP_TABLE default
0.000000	0.000000	0.000000	0.000000	0.000000	0.000000	0.000000	0.000000	0.000000	0.000000	0.000000	0.000000	0.000000	0.000000	0.000000	0.000000	0.000000	0.000000	0.000000	0.000000	0.000000	0.000000	0.000000	0.000000	0.000000	0.000000	0.000000	0.000000	0.000000	0.000000	0.000000	0.000000	0.000000	0.000000	0.000000	0.000000	0.000000	0.000000	0.000000	0.000000	0.000000	0.000000	0.000000	0.000000	0.000000	0.000000	0.000000	0.000000	0.000000	0.000000	0.000000	0.000000	0.000000	0.000000	0.000000	0.000000	0.000000	0.000000	0.000000	0.000000	0.000000	0.000000	0.000000	0.000000	0.000000	0.000000	0.000000	0.000000	0.000000	0.000000	0.000000	0.000000	0.000000	0.000000	0.000000	0.000000	0.000000	0.000000	0.000000	0.000000	0.000000	0.000000	0.000000	0.000000	0.000000	0.000000	0.000000	0.000000	0.000000	0.000000	0.000000	0.000000	0.000000	0.000000	0.000000	0.000000	0.000000	0.000000	0.000000	0.000000	0.000000	0.000000	0.000000	0.000000	0.000000	0.000000	0.000000	0.000000	0.000000	0.000000	0.000000	0.000000	0.000000	0.000000	0.000000	0.000000	0.000000	0.000000	0.000000	0.000000	0.000000	0.000000	0.000000	0.000000	0.000000	0.000000	0.000000	0.000000	0.000000	0.000000	0.000000	0.000000	0.000000	0.000000	0.000000	0.000000	0.000000	0.000000	0.000000	0.000000	0.000000	0.000000	0.000000	0.000000	0.000000	0.000000	0.000000	0.000000	0.000000	0.000000	0.000000	0.000000	0.000000	0.000000	0.000000	0.000000	0.000000	0.000000	0.000000	0.000000	0.000000	0.000000	0.000000	0.000000	0.000000	0.000000	0.000000	0.000000	0.000000	0.000000	0.000000	0.000000	0.000000	0.000000	0.000000	0.000000	0.000000	0.000000	0.000000	0.000000	0.000000	0.000000	0.000000	0.000000	0.000000	0.000000	0.000000	0.000000	0.000000	0.000000	0.000000	0.000000	0.000000	0.000000	0.000000	0.000000	0.000000	0.000000	0.000000	0.000000	0.000000	0.000000	0.000000	0.000000	0.000000	0.000000	0.000000	0.000000	0.000000	0.000000	0.000000	0.000000	0.000000	0.000000	0.000000	0.000000	0.000000	0.000000	0.000000	0.000000	0.000000	0.000000	1275.878860	13285.134770	2918.961382	629.543976	4682.716782	12915.904731	1677.882492	2746.061066	2387.244842	5339.287930	10608.482627	5345.481171	7497.764125	7259.520190	10988.888419	1227.833221	3203.198674	713.238698	6672.235564	7470.052557	3429.280415	1694.875870	422.224913	3047.392157	7066.414926	5790.004054	6453.771692	7609.508789	2227.357808	965.850954	3506.213127	4875.715206	4683.805686	2921.784120	5506.245964	4239.880072	5787.736594	2605.473885	6672.793329	2587.617546	5295.833186	1395.112933	2937.810118	8044.587321	5453.149060	1794.032148	1818.130478	2589.554698	601.554766	5125.110731	3451.854626	3153.733597	4448.389517	1888.696060	4888.449924	2828.917062	3445.864237	5705.660665	2716.912893	2318.695745	7717.069043	2734.873185	1408.629434	914.133798	2143.838690	1762.742966	9632.641023	3109.394908	766.733817	2852.571187	1850.631258	9119.813165	9938.614188	1306.049567	4126.195804	13335.908562	1067.746189	1214.298699	11123.968991	2702.174415	5858.314926	7395.287668	2118.663190	3140.211307	5947.403244	3868.477788	3628.678504	5382.968616	2746.322215	6270.562796	1975.492451	4728.176074	1322.881196	1184.771002	833.414657	3792.477962	2807.350131	1202.803855	8191.998006	1070.555387	4304.332659	1905.313376	3223.690827	7791.749055	6295.929921	6209.665706	917.083405	7864.365151	3882.763393	625.681723	1548.786769	4538.420945	3705.601793	1010.190424	865.300146	371.828063	2683.152410	5585.612646	3283.117412	4541.822559	6423.638506	3255.433280	2856.569315	6901.229128	4468.790430	3758.434994	3734.878183	3854.199171	5493.025041	1369.920176	759.174767	4815.014063	4200.370479	8281.581599	5293.744492	2730.070891	4260.354715	3750.263437	3187.616388	2633.765732	4328.772920	2404.896715	7228.246475	657.542115	1750.583052	1301.178256	2658.950918	4401.659331	1458.910861	4380.637220	2565.501094	3500.852051	774.608569	5089.885930	1571.580194	946.747173	5577.805531	2774.250462	1860.876862	5652.829283	5061.069588	2592.806749	886.679675	2660.237350	1518.557775	5633.329883	4452.485309	1953.552470	1083.337539	3653.504257	2868.246911	5923.565733	3864.640052	2759.696503	11535.936405	3363.696555	1505.400125	1071.161993	6241.826280	5432.454790	1449.106058	1697.129126	3803.902918	2122.079955	1259.493925	646.556153	1326.459514	6790.850821	4086.964531	2054.989909	2959.758969	5713.087867	3637.708455	5095.947948	4108.721879	3297.765237	4328.570050	2235.972094	4718.103287	1177.864207	1319.039729	10407.068237	8915.106789	6949.703446	3570.484201	4570.611026	3756.197739	8669.267845	3322.525625	4621.418968	5173.002399	2088.157279	3637.794213	839.954693	5278.862205	1575.452379	2883.338882	6397.127211	5191.050236	1341.384367	6444.645031	1687.771042	1254.340089	2659.066599	5234.645636	6126.756477	6969.144446	2196.724249	3852.722140	12063.166878	7227.326101	6252.096852	9975.956385	2744.655170	656.111946	7380.644772	11244.738630	13764.165050	4523.474173	5458.884684	1936.747474	3772.984238	6025.634567	7165.813264	13597.134817	3448.752994	3392.843129	6414.438297	1052.767275	3683.248037	1232.924263	6435.395414	11098.503156	9571.756716	6125.321622	1228.407531	1591.499762	18628.724345	1337.007325	4854.949176	4821.482021	12951.517556	4668.950745	9452.680543	6773.575329	3414.029425	5464.092133	1007.953318	2907.187009	5564.789258	6962.744117	1931.526520	11137.440643	7226.900271	4409.263495	11258.582255	2378.005673	6386.940093	5305.100859	791.678279	2278.360665	1061.525325	6822.116549	3328.691385	4454.984302	8153.505649	9457.488901	1172.542140	1640.213338	1450.461577	641.264005	14928.751300	2926.406029	2784.964199	4546.149888	6557.228402	4424.389992	6184.383322	10785.246781	924.771484	3047.782299	3781.212070	17795.470366	6269.846241	2103.817050	2835.566425	2424.789834	2481.915002	6701.953113	3471.489744	2249.578174	4299.368043	839.420801	5634.661977	2267.210904	2905.051159	3110.947874	825.419727	4426.584117	470.655365	1825.465932	950.151548	140.924136	4967.714955	8108.821352	1780.955548	8326.222081	2178.072576	1764.055873	4392.687335	2365.536118	2312.004663	3827.664182	3736.039624	4328.000778	1567.059501	1593.670357	7170.937325	3279.736239	7310.468757	890.532408	5639.820565	2813.717771	1919.880089	4722.755379	4188.877129	1739.776469	1353.087570	3515.850033	2981.245124	2456.451198	1240.028086	3945.217684	1565.469062	1429.439254	7080.845651	2901.310759	9055.497586	2801.936308	3095.036985	5313.619741	1225.781225	2517.617671	2488.569813	8040.149573	3403.711472	5215.095225	2950.982563	4206.931978	1966.133987	3715.554829	4095.008936	2680.362381	7312.972275	4936.235961	5528.650500	2151.600925	4148.512618	2161.074660	2378.046853	7765.795976	1644.174566	3767.772777	5453.729606	5098.027567	2848.722915	2243.045641	4654.352607	3882.093182	5464.317687	1131.432199	2853.508245	1777.535720	6630.580541	8058.409061	829.442324	4925.908711	1056.965376	3543.491222	4071.262684	10069.675112	13418.906360	10843.555015	11924.833105	3743.972801	1177.923708	12920.255957	2248.651954	2589.849459	8738.680342	3896.453072	5977.972700	2404.478016	15217.510219	7865.510460	1574.297296	3275.862252	9397.881588	1951.730324	13086.722533	4884.453766	11963.353826	6846.868231	14832.306924	10654.492469	953.881885	3905.557450	6834.722394	1532.440067	3668.610500	4003.789443	5672.109547	9830.035512	6689.446604	2184.032447	12640.548410	1272.214433	14469.491359	3454.149626	5863.188875	14384.513762	2307.690946	12046.561831	11017.077328	7464.402896	1309.326466	12656.133771	9458.801521	6839.690756	3045.412248	2947.714322	1650.737901	2137.636879	2239.893915	3223.517899	13971.624624	7764.369560	4211.004341	13308.863161	7356.987501	6215.178023	7832.608311	11807.443294	3611.619713	6998.295339	18984.106935	13860.031172	6824.450293	3070.077942	11788.278891	2707.050582	4985.718986	4255.505862	868.425563	11306.552229	7579.535021	10461.998708	4372.598813	1007.644683	5373.193827	2118.593205	12550.329331	1688.540735	2142.089868	4359.585171	2226.281691	5840.435872	16145.950066	2735.503226	15838.693732	2690.904453	12337.047409	13393.479617	6234.327216	449.014051	7047.725564	7045.501291	13472.274733	6732.752413	5442.097049	4692.959773	13135.126833	8657.836178	3486.127224	5275.895071	4122.167047	4903.485935	1535.643332	992.456670	6066.559271	7213.332117	3052.174790	4127.008541	6507.299613	3513.745036	6951.693804	1994.074746	2944.918827	710.983383	10714.793625	2578.272639	1831.704637	2217.029783	2789.480155	1817.122563	4416.810364	2709.808628	156.751624	4871.272724	1118.052991	6099.238193	724.151316	3111.045108	698.022823	1977.678755	1733.386103	7524.169516	469.079797	1605.735618	2437.065809	2376.414995	7199.938438	5809.336350	3309.569089	1204.622802	3860.470772	2411.214161	1816.494788	7446.164627	6683.634414	2798.771755	6319.647024	3056.791289	3440.165412	1128.973579	1857.503094	8005.054954	4989.388949	1517.274411	3720.777819	2634.338046	2224.885120	2183.325277	5117.830684	5055.941496	4246.790379	997.296170	1030.476744	782.242870	3007.317555	3629.376666	4045.703270	1693.506365	2774.826411	7153.206575	4958.830967	6066.190245	6329.843149	7412.352216	2433.925916	1208.793874	2424.406811	764.001869	2089.685768	3613.615205	3653.891581	7296.244434	7068.010640	2374.700298	8109.486106	5299.644344	3764.513835	10123.882523	2710.188194	1049.343057	1762.197058	622.940421	4989.105445	2666.977261	7640.935479	9560.592456	8089.317106	19028.604218	6741.234693	13407.068580	10162.936388	12823.718243	10490.503024	16641.707043	13429.561828	14439.236176	11835.201219	5708.497208	15048.583740	6977.322859	2131.729157	15090.494879	19097.616211	6016.984033	12084.436564	15564.873939	14509.404353	13532.938138	13821.661236	14707.853437	14206.081539	8140.959582	8587.769271	4126.718193	11333.376493	4590.878160	18003.639842	5503.533891	13739.221657	14925.663575	13592.994408	17000.469155	8910.639846	1266.485662	14765.217492	13282.474849	12273.676539	1815.715516	7304.406978	11520.974373	18632.576480	6574.345780	12664.977656	11746.776232	14637.925599	17146.790543	6812.160930	18784.746345	10623.519951	3961.148443	16761.772986	13704.241922	13074.986052	4675.861239	15228.170652	18834.689144	6502.971417	17937.132589	6767.599783	3871.630876	5198.702887	11592.758473	6387.367887	6004.310442	3166.384477	13786.043218	14011.223526	11720.277481	13967.120925	3635.494990	6062.494289	15168.191827	13198.685637	13297.643951	12336.988153	3547.367766	12933.532048	13443.002830	18045.080203	13637.922686	12538.672686	6488.271377	11687.095163	5246.829064	6745.236215	5995.586200	5333.342864	6480.567787	14419.442449	10380.905447	14484.154590	13034.863926	13684.564488	12778.987805	14415.186739	2018.258821	1169.319610	7578.431448	8993.668733	3401.408071	5906.671263	5410.642378	4856.821229	5523.216097	7633.586329	1866.011941	1853.200812	9441.693384	7588.099610	6470.644097	7387.503838	8262.005842	2667.772685	3055.209907	6547.055860	4546.750134	7866.843887	6544.447885	3767.112619	2061.712133	2138.453938	6333.574791	4665.871011	9333.220693	2884.290728	5305.925080	2874.587988	2344.906547	5067.052594	2115.410030	1312.966318	9154.963726	7368.305080	8174.474073	7817.911097	4643.180423	7591.216800	8568.053038	663.761461	1621.296622	1239.572979	5898.237659	4483.862541	4599.918800	8006.398961	9271.773257	4221.356219	9896.193901	8754.153551	5507.398156	1323.250399	5678.555606	7147.908162	4503.533344	2723.031109	203.818274	7694.359500	890.556373	9626.776792	8436.426270	3381.491589	4670.290489	1558.501804	3929.614915	3828.535665	7822.427557	10349.094044	8996.094391	8910.580615	11082.218951	9877.275695	7622.953564	5579.460605	7813.563659	6075.075101	7600.377222	13663.871610	644.846755	7832.373641	1071.058067	3778.720688	11154.454414	6792.844443	2389.808649	2729.005910	1964.074082	6757.526431	8250.723175	7426.288508	7887.908683	1629.008714	6625.915210	7941.181376	4622.792513	7894.935753	
TENSORS deviatoric_stress float
0.000000 0.000000 0.000000 0.000000 0.000000 0.000000 0.000000 0.000000 0.000000
0.000000 0.000000 0.000000 0.000000 0.000000 0.000000 0.000000 0.000000 0.000000
0.000000 0.000000 0.000000 0.000000 0.000000 0.000000 0.000000 0.000000 0.000000
0.000000 0.000000 0.000000 0.000000 0.000000 0.000000 0.000000 0.000000 0.000000
0.000000 0.000000 0.000000 0.000000 0.000000 0.000000 0.000000 0.000000 0.000000
0.000000 0.000000 0.000000 0.000000 0.000000 0.000000 0.000000 0.000000 0.000000
0.000000 0.000000 0.000000 0.000000 0.000000 0.000000 0.000000 0.000000 0.000000
0.000000 0.000000 0.000000 0.000000 0.000000 0.000000 0.000000 0.000000 0.000000
0.000000 0.000000 0.000000 0.000000 0.000000 0.000000 0.000000 0.000000 0.000000
0.000000 0.000000 0.000000 0.000000 0.000000 0.000000 0.000000 0.000000 0.000000
0.000000 0.000000 0.000000 0.000000 0.000000 0.000000 0.000000 0.000000 0.000000
0.000000 0.000000 0.000000 0.000000 0.000000 0.000000 0.000000 0.000000 0.000000
0.000000 0.000000 0.000000 0.000000 0.000000 0.000000 0.000000 0.000000 0.000000
0.000000 0.000000 0.000000 0.000000 0.000000 0.000000 0.000000 0.000000 0.000000
0.000000 0.000000 0.000000 0.000000 0.000000 0.000000 0.000000 0.000000 0.000000
0.000000 0.000000 0.000000 0.000000 0.000000 0.000000 0.000000 0.000000 0.000000
0.000000 0.000000 0.000000 0.000000 0.000000 0.000000 0.000000 0.000000 0.000000
0.000000 0.000000 0.000000 0.000000 0.000000 0.000000 0.000000 0.000000 0.000000
0.000000 0.000000 0.000000 0.000000 0.000000 0.000000 0.000000 0.000000 0.000000
0.000000 0.000000 0.000000 0.000000 0.000000 0.000000 0.000000 0.000000 0.000000
0.000000 0.000000 0.000000 0.000000 0.000000 0.000000 0.000000 0.000000 0.000000
0.000000 0.000000 0.000000 0.000000 0.000000 0.000000 0.000000 0.000000 0.000000
0.000000 0.000000 0.000000 0.000000 0.000000 0.000000 0.000000 0.000000 0.000000
0.000000 0.000000 0.000000 0.000000 0.000000 0.000000 0.000000 0.000000 0.000000
0.000000 0.000000 0.000000 0.000000 0.000000 0.000000 0.000000 0.000000 0.000000
0.000000 0.000000 0.000000 0.000000 0.000000 0.000000 0.000000 0.000000 0.000000
0.000000 0.000000 0.000000 0.000000 0.000000 0.000000 0.000000 0.000000 0.000000
0.000000 0.000000 0.000000 0.000000 0.000000 0.000000 0.000000 0.000000 0.000000
0.000000 0.000000 0.000000 0.000000 0.000000 0.000000 0.000000 0.000000 0.000000
0.000000 0.000000 0.000000 0.000000 0.000000 0.000000 0.000000 0.000000 0.000000
0.000000 0.000000 0.000000 0.000000 0.000000 0.000000 0.000000 0.000000 0.000000
0.000000 0.000000 0.000000 0.000000 0.000000 0.000000 0.000000 0.000000 0.000000
0.000000 0.000000 0.000000 0.000000 0.000000 0.000000 0.000000 0.000000 0.000000
0.000000 0.000000 0.000000 0.000000 0.000000 0.000000 0.000000 0.000000 0.000000
0.000000 0.000000 0.000000 0.000000 0.000000 0.000000 0.000000 0.000000 0.000000
0.000000 0.000000 0.000000 0.000000 0.000000 0.000000 0.000000 0.000000 0.000000
0.000000 0.000000 0.000000 0.000000 0.000000 0.000000 0.000000 0.000000 0.000000
0.000000 0.000000 0.000000 0.000000 0.000000 0.000000 0.000000 0.000000 0.000000
0.000000 0.000000 0.000000 0.000000 0.000000 0.000000 0.000000 0.000000 0.000000
0.000000 0.000000 0.000000 0.000000 0.000000 0.000000 0.000000 0.000000 0.000000
0.000000 0.000000 0.000000 0.000000 0.000000 0.000000 0.000000 0.000000 0.000000
0.000000 0.000000 0.000000 0.000000 0.000000 0.000000 0.000000 0.000000 0.000000
0.000000 0.000000 0.000000 0.000000 0.000000 0.000000 0.000000 0.000000 0.000000
0.000000 0.000000 0.000000 0.000000 0.000000 0.000000 0.000000 0.000000 0.000000
0.000000 0.000000 0.000000 0.000000 0.000000 0.000000 0.000000 0.000000 0.000000
0.000000 0.000000 0.000000 0.000000 0.000000 0.000000 0.000000 0.000000 0.000000
0.000000 0.000000 0.000000 0.000000 0.000000 0.000000 0.000000 0.000000 0.000000
0.000000 0.000000 0.000000 0.000000 0.000000 0.000000 0.000000 0.000000 0.000000
0.000000 0.000000 0.000000 0.000000 0.000000 0.000000 0.000000 0.000000 0.000000
0.000000 0.000000 0.000000 0.000000 0.000000 0.000000 0.000000 0.000000 0.000000
0.000000 0.000000 0.000000 0.000000 0.000000 0.000000 0.000000 0.000000 0.000000
0.000000 0.000000 0.000000 0.000000 0.000000 0.000000 0.000000 0.000000 0.000000
0.000000 0.000000 0.000000 0.000000 0.000000 0.000000 0.000000 0.000000 0.000000
0.000000 0.000000 0.000000 0.000000 0.000000 0.000000 0.000000 0.000000 0.000000
0.000000 0.000000 0.000000 0.000000 0.000000 0.000000 0.000000 0.000000 0.000000
0.000000 0.000000 0.000000 0.000000 0.000000 0.000000 0.000000 0.000000 0.000000
0.000000 0.000000 0.000000 0.000000 0.000000 0.000000 0.000000 0.000000 0.000000
0.000000 0.000000 0.000000 0.000000 0.000000 0.000000 0.000000 0.000000 0.000000
0.000000 0.000000 0.000000 0.000000 0.000000 0.000000 0.000000 0.000000 0.000000
0.000000 0.000000 0.000000 0.000000 0.000000 0.000000 0.000000 0.000000 0.000000
0.000000 0.000000 0.000000 0.000000 0.000000 0.000000 0.000000 0.000000 0.000000
0.000000 0.000000 0.000000 0.000000 0.000000 0.000000 0.000000 0.000000 0.000000
0.000000 0.000000 0.000000 0.000000 0.000000 0.000000 0.000000 0.000000 0.000000
0.000000 0.000000 0.000000 0.000000 0.000000 0.000000 0.000000 0.000000 0.000000
0.000000 0.000000 0.000000 0.000000 0.000000 0.000000 0.000000 0.000000 0.000000
0.000000 0.000000 0.000000 0.000000 0.000000 0.000000 0.000000 0.000000 0.000000
0.000000 0.000000 0.000000 0.000000 0.000000 0.000000 0.000000 0.000000 0.000000
0.000000 0.000000 0.000000 0.000000 0.000000 0.000000 0.000000 0.000000 0.000000
0.000000 0.000000 0.000000 0.000000 0.000000 0.000000 0.000000 0.000000 0.000000
0.000000 0.000000 0.000000 0.000000 0.000000 0.000000 0.000000 0.000000 0.000000
0.000000 0.000000 0.000000 0.000000 0.000000 0.000000 0.000000 0.000000 0.000000
0.000000 0.000000 0.000000 0.000000 0.000000 0.000000 0.000000 0.000000 0.000000
0.000000 0.000000 0.000000 0.000000 0.000000 0.000000 0.000000 0.000000 0.000000
0.000000 0.000000 0.000000 0.000000 0.000000 0.000000 0.000000 0.000000 0.000000
0.000000 0.000000 0.000000 0.000000 0.000000 0.000000 0.000000 0.000000 0.000000
0.000000 0.000000 0.000000 0.000000 0.000000 0.000000 0.000000 0.000000 0.000000
0.000000 0.000000 0.000000 0.000000 0.000000 0.000000 0.000000 0.000000 0.000000
0.000000 0.000000 0.000000 0.000000 0.000000 0.000000 0.000000 0.000000 0.000000
0.000000 0.000000 0.000000 0.000000 0.000000 0.000000 0.000000 0.000000 0.000000
0.000000 0.000000 0.000000 0.000000 0.000000 0.000000 0.000000 0.000000 0.000000
0.000000 0.000000 0.000000 0.000000 0.000000 0.000000 0.000000 0.000000 0.000000
0.000000 0.000000 0.000000 0.000000 0.000000 0.000000 0.000000 0.000000 0.000000
0.000000 0.000000 0.000000 0.000000 0.000000 0.000000 0.000000 0.000000 0.000000
0.000000 0.000000 0.000000 0.000000 0.000000 0.000000 0.000000 0.000000 0.000000
0.000000 0.000000 0.000000 0.000000 0.000000 0.000000 0.000000 0.000000 0.000000
0.000000 0.000000 0.000000 0.000000 0.000000 0.000000 0.000000 0.000000 0.000000
0.000000 0.000000 0.000000 0.000000 0.000000 0.000000 0.000000 0.000000 0.000000
0.000000 0.000000 0.000000 0.000000 0.000000 0.000000 0.000000 0.000000 0.000000
0.000000 0.000000 0.000000 0.000000 0.000000 0.000000 0.000000 0.000000 0.000000
0.000000 0.000000 0.000000 0.000000 0.000000 0.000000 0.000000 0.000000 0.000000
0.000000 0.000000 0.000000 0.000000 0.000000 0.000000 0.000000 0.000000 0.000000
0.000000 0.000000 0.000000 0.000000 0.000000 0.000000 0.000000 0.000000 0.000000
0.000000 0.000000 0.000000 0.000000 0.000000 0.000000 0.000000 0.000000 0.000000
0.000000 0.000000 0.000000 0.000000 0.000000 0.000000 0.000000 0.000000 0.000000
0.000000 0.000000 0.000000 0.000000 0.000000 0.000000 0.000000 0.000000 0.000000
0.000000 0.000000 0.000000 0.000000 0.000000 0.000000 0.000000 0.000000 0.000000
0.000000 0.000000 0.000000 0.000000 0.000000 0.000000 0.000000 0.000000 0.000000
0.000000 0.000000 0.000000 0.000000 0.000000 0.000000 0.000000 0.000000 0.000000
0.000000 0.000000 0.000000 0.000000 0.000000 0.000000 0.000000 0.000000 0.000000
0.000000 0.000000 0.000000 0.000000 0.000000 0.000000 0.000000 0.000000 0.000000
0.000000 0.000000 0.000000 0.000000 0.000000 0.000000 0.000000 0.000000 0.000000
0.000000 0.000000 0.000000 0.000000 0.000000 0.000000 0.000000 0.000000 0.000000
0.000000 0.000000 0.000000 0.000000 0.000000 0.000000 0.000000 0.000000 0.000000
0.000000 0.000000 0.000000 0.000000 0.000000 0.000000 0.000000 0.000000 0.000000
0.000000 0.000000 0.000000 0.000000 0.000000 0.000000 0.000000 0.000000 0.000000
0.000000 0.000000 0.000000 0.000000 0.000000 0.000000 0.000000 0.000000 0.000000
0.000000 0.000000 0.000000 0.000000 0.000000 0.000000 0.000000 0.000000 0.000000
0.000000 0.000000 0.000000 0.000000 0.000000 0.000000 0.000000 0.000000 0.000000
0.000000 0.000000 0.000000 0.000000 0.000000 0.000000 0.000000 0.000000 0.000000
0.000000 0.000000 0.000000 0.000000 0.000000 0.000000 0.000000 0.000000 0.000000
0.000000 0.000000 0.000000 0.000000 0.000000 0.000000 0.000000 0.000000 0.000000
0.000000 0.000000 0.000000 0.000000 0.000000 0.000000 0.000000 0.000000 0.000000
0.000000 0.000000 0.000000 0.000000 0.000000 0.000000 0.000000 0.000000 0.000000
0.000000 0.000000 0.000000 0.000000 0.000000 0.000000 0.000000 0.000000 0.000000
0.000000 0.000000 0.000000 0.000000 0.000000 0.000000 0.000000 0.000000 0.000000
0.000000 0.000000 0.000000 0.000000 0.000000 0.000000 0.000000 0.000000 0.000000
0.000000 0.000000 0.000000 0.000000 0.000000 0.000000 0.000000 0.000000 0.000000
0.000000 0.000000 0.000000 0.000000 0.000000 0.000000 0.000000 0.000000 0.000000
0.000000 0.000000 0.000000 0.000000 0.000000 0.000000 0.000000 0.000000 0.000000
0.000000 0.000000 0.000000 0.000000 0.000000 0.000000 0.000000 0.000000 0.000000
0.000000 0.000000 0.000000 0.000000 0.000000 0.000000 0.000000 0.000000 0.000000
0.000000 0.000000 0.000000 0.000000 0.000000 0.000000 0.000000 0.000000 0.000000
0.000000 0.000000 0.000000 0.000000 0.000000 0.000000 0.000000 0.000000 0.000000
0.000000 0.000000 0.000000 0.000000 0.000000 0.000000 0.000000 0.000000 0.000000
0.000000 0.000000 0.000000 0.000000 0.000000 0.000000 0.000000 0.000000 0.000000
0.000000 0.000000 0.000000 0.000000 0.000000 0.000000 0.000000 0.000000 0.000000
0.000000 0.000000 0.000000 0.000000 0.000000 0.000000 0.000000 0.000000 0.000000
0.000000 0.000000 0.000000 0.000000 0.000000 0.000000 0.000000 0.000000 0.000000
0.000000 0.000000 0.000000 0.000000 0.000000 0.000000 0.000000 0.000000 0.000000
0.000000 0.000000 0.000000 0.000000 0.000000 0.000000 0.000000 0.000000 0.000000
0.000000 0.000000 0.000000 0.000000 0.000000 0.000000 0.000000 0.000000 0.000000
0.000000 0.000000 0.000000 0.000000 0.000000 0.000000 0.000000 0.000000 0.000000
0.000000 0.000000 0.000000 0.000000 0.000000 0.000000 0.000000 0.000000 0.000000
0.000000 0.000000 0.000000 0.000000 0.000000 0.000000 0.000000 0.000000 0.000000
0.000000 0.000000 0.000000 0.000000 0.000000 0.000000 0.000000 0.000000 0.000000
0.000000 0.000000 0.000000 0.000000 0.000000 0.000000 0.000000 0.000000 0.000000
0.000000 0.000000 0.000000 0.000000 0.000000 0.000000 0.000000 0.000000 0.000000
0.000000 0.000000 0.000000 0.000000 0.000000 0.000000 0.000000 0.000000 0.000000
0.000000 0.000000 0.000000 0.000000 0.000000 0.000000 0.000000 0.000000 0.000000
0.000000 0.000000 0.000000 0.000000 0.000000 0.000000 0.000000 0.000000 0.000000
0.000000 0.000000 0.000000 0.000000 0.000000 0.000000 0.000000 0.000000 0.000000
0.000000 0.000000 0.000000 0.000000 0.000000 0.000000 0.000000 0.000000 0.000000
0.000000 0.000000 0.000000 0.000000 0.000000 0.000000 0.000000 0.000000 0.000000
0.000000 0.000000 0.000000 0.000000 0.000000 0.000000 0.000000 0.000000 0.000000
0.000000 0.000000 0.000000 0.000000 0.000000 0.000000 0.000000 0.000000 0.000000
0.000000 0.000000 0.000000 0.000000 0.000000 0.000000 0.000000 0.000000 0.000000
0.000000 0.000000 0.000000 0.000000 0.000000 0.000000 0.000000 0.000000 0.000000
0.000000 0.000000 0.000000 0.000000 0.000000 0.000000 0.000000 0.000000 0.000000
0.000000 0.000000 0.000000 0.000000 0.000000 0.000000 0.000000 0.000000 0.000000
0.000000 0.000000 0.000000 0.000000 0.000000 0.000000 0.000000 0.000000 0.000000
0.000000 0.000000 0.000000 0.000000 0.000000 0.000000 0.000000 0.000000 0.000000
0.000000 0.000000 0.000000 0.000000 0.000000 0.000000 0.000000 0.000000 0.000000
0.000000 0.000000 0.000000 0.000000 0.000000 0.000000 0.000000 0.000000 0.000000
0.000000 0.000000 0.000000 0.000000 0.000000 0.000000 0.000000 0.000000 0.000000
0.000000 0.000000 0.000000 0.000000 0.000000 0.000000 0.000000 0.000000 0.000000
0.000000 0.000000 0.000000 0.000000 0.000000 0.000000 0.000000 0.000000 0.000000
0.000000 0.000000 0.000000 0.000000 0.000000 0.000000 0.000000 0.000000 0.000000
0.000000 0.000000 0.000000 0.000000 0.000000 0.000000 0.000000 0.000000 0.000000
0.000000 0.000000 0.000000 0.000000 0.000000 0.000000 0.000000 0.000000 0.000000
0.000000 0.000000 0.000000 0.000000 0.000000 0.000000 0.000000 0.000000 0.000000
0.000000 0.000000 0.000000 0.000000 0.000000 0.000000 0.000000 0.000000 0.000000
0.000000 0.000000 0.000000 0.000000 0.000000 0.000000 0.000000 0.000000 0.000000
0.000000 0.000000 0.000000 0.000000 0.000000 0.000000 0.000000 0.000000 0.000000
0.000000 0.000000 0.000000 0.000000 0.000000 0.000000 0.000000 0.000000 0.000000
0.000000 0.000000 0.000000 0.000000 0.000000 0.000000 0.000000 0.000000 0.000000
0.000000 0.000000 0.000000 0.000000 0.000000 0.000000 0.000000 0.000000 0.000000
0.000000 0.000000 0.000000 0.000000 0.000000 0.000000 0.000000 0.000000 0.000000
0.000000 0.000000 0.000000 0.000000 0.000000 0.000000 0.000000 0.000000 0.000000
0.000000 0.000000 0.000000 0.000000 0.000000 0.000000 0.000000 0.000000 0.000000
0.000000 0.000000 0.000000 0.000000 0.000000 0.000000 0.000000 0.000000 0.000000
0.000000 0.000000 0.000000 0.000000 0.000000 0.000000 0.000000 0.000000 0.000000
0.000000 0.000000 0.000000 0.000000 0.000000 0.000000 0.000000 0.000000 0.000000
0.000000 0.000000 0.000000 0.000000 0.000000 0.000000 0.000000 0.000000 0.000000
0.000000 0.000000 0.000000 0.000000 0.000000 0.000000 0.000000 0.000000 0.000000
0.000000 0.000000 0.000000 0.000000 0.000000 0.000000 0.000000 0.000000 0.000000
0.000000 0.000000 0.000000 0.000000 0.000000 0.000000 0.000000 0.000000 0.000000
0.000000 0.000000 0.000000 0.000000 0.000000 0.000000 0.000000 0.000000 0.000000
0.000000 0.000000 0.000000 0.000000 0.000000 0.000000 0.000000 0.000000 0.000000
0.000000 0.000000 0.000000 0.000000 0.000000 0.000000 0.000000 0.000000 0.000000
0.000000 0.000000 0.000000 0.000000 0.000000 0.000000 0.000000 0.000000 0.000000
0.000000 0.000000 0.000000 0.000000 0.000000 0.000000 0.000000 0.000000 0.000000
0.000000 0.000000 0.000000 0.000000 0.000000 0.000000 0.000000 0.000000 0.000000
0.000000 0.000000 0.000000 0.000000 0.000000 0.000000 0.000000 0.000000 0.000000
0.000000 0.000000 0.000000 0.000000 0.000000 0.000000 0.000000 0.000000 0.000000
0.000000 0.000000 0.000000 0.000000 0.000000 0.000000 0.000000 0.000000 0.000000
0.000000 0.000000 0.000000 0.000000 0.000000 0.000000 0.000000 0.000000 0.000000
0.000000 0.000000 0.000000 0.000000 0.000000 0.000000 0.000000 0.000000 0.000000
0.000000 0.000000 0.000000 0.000000 0.000000 0.000000 0.000000 0.000000 0.000000
0.000000 0.000000 0.000000 0.000000 0.000000 0.000000 0.000000 0.000000 0.000000
0.000000 0.000000 0.000000 0.000000 0.000000 0.000000 0.000000 0.000000 0.000000
0.000000 0.000000 0.000000 0.000000 0.000000 0.000000 0.000000 0.000000 0.000000
0.000000 0.000000 0.000000 0.000000 0.000000 0.000000 0.000000 0.000000 0.000000
0.000000 0.000000 0.000000 0.000000 0.000000 0.000000 0.000000 0.000000 0.000000
0.000000 0.000000 0.000000 0.000000 0.000000 0.000000 0.000000 0.000000 0.000000
0.000000 0.000000 0.000000 0.000000 0.000000 0.000000 0.000000 0.000000 0.000000
0.000000 0.000000 0.000000 0.000000 0.000000 0.000000 0.000000 0.000000 0.000000
0.000000 0.000000 0.000000 0.000000 0.000000 0.000000 0.000000 0.000000 0.000000
0.000000 0.000000 0.000000 0.000000 0.000000 0.000000 0.000000 0.000000 0.000000
0.000000 0.000000 0.000000 0.000000 0.000000 0.000000 0.000000 0.000000 0.000000
0.000000 0.000000 0.000000 0.000000 0.000000 0.000000 0.000000 0.000000 0.000000
0.000000 0.000000 0.000000 0.000000 0.000000 0.000000 0.000000 0.000000 0.000000
0.000000 0.000000 0.000000 0.000000 0.000000 0.000000 0.000000 0.000000 0.000000
0.000000 0.000000 0.000000 0.000000 0.000000 0.000000 0.000000 0.000000 0.000000
0.000000 0.000000 0.000000 0.000000 0.000000 0.000000 0.000000 0.000000 0.000000
0.000000 0.000000 0.000000 0.000000 0.000000 0.000000 0.000000 0.000000 0.000000
0.000000 0.000000 0.000000 0.000000 0.000000 0.000000 0.000000 0.000000 0.000000
0.000000 0.000000 0.000000 0.000000 0.000000 0.000000 0.000000 0.000000 0.000000
0.000000 0.000000 0.000000 0.000000 0.000000 0.000000 0.000000 0.000000 0.000000
0.000000 0.000000 0.000000 0.000000 0.000000 0.000000 0.000000 0.000000 0.000000
0.000000 0.000000 0.000000 0.000000 0.000000 0.000000 0.000000 0.000000 0.000000
0.000000 0.000000 0.000000 0.000000 0.000000 0.000000 0.000000 0.000000 0.000000
0.000000 0.000000 0.000000 0.000000 0.000000 0.000000 0.000000 0.000000 0.000000
0.000000 0.000000 0.000000 0.000000 0.000000 0.000000 0.000000 0.000000 0.000000
0.000000 0.000000 0.000000 0.000000 0.000000 0.000000 0.000000 0.000000 0.000000
0.000000 0.000000 0.000000 0.000000 0.000000 0.000000 0.000000 0.000000 0.000000
0.000000 0.000000 0.000000 0.000000 0.000000 0.000000 0.000000 0.000000 0.000000
0.000000 0.000000 0.000000 0.000000 0.000000 0.000000 0.000000 0.000000 0.000000
0.000000 0.000000 0.000000 0.000000 0.000000 0.000000 0.000000 0.000000 0.000000
0.000000 0.000000 0.000000 0.000000 0.000000 0.000000 0.000000 0.000000 0.000000
0.000000 0.000000 0.000000 0.000000 0.000000 0.000000 0.000000 0.000000 0.000000
0.000000 0.000000 0.000000 0.000000 0.000000 0.000000 0.000000 0.000000 0.000000
0.000000 0.000000 0.000000 0.000000 0.000000 0.000000 0.000000 0.000000 0.000000
-127133.229969 -159537.821897 0.000000 -159537.821897 127133.229969 0.000000 0.000000 0.000000 0.000000
-6939925.950702 -3015839.523313 0.000000 -3015839.523313 6939925.950702 0.000000 0.000000 0.000000 0.000000
-5310754.357388 -685784.537024 0.000000 -685784.537024 5310754.357388 0.000000 0.000000 0.000000 0.000000
-9344809.879036 -205296.457029 0.000000 -205296.457029 9344809.879036 0.000000 0.000000 0.000000 0.000000
5970527.980522 453984.036419 0.000000 453984.036419 -5970527.980522 0.000000 0.000000 0.000000 0.000000
-4538736.269436 -10011312.582982 0.000000 -10011312.582982 4538736.269436 0.000000 0.000000 0.000000 0.000000
-4811607.106674 -3119819.585888 0.000000 -3119819.585888 4811607.106674 0.000000 0.000000 0.000000 0.000000
3112778.890407 -584771.905558 0.000000 -584771.905558 -3112778.890407 0.000000 0.000000 0.000000 0.000000
-8768873.658112 1782035.163682 0.000000 1782035.163682 8768873.658112 0.000000 0.000000 0.000000 0.000000
-2398265.043068 10947321.483770 0.000000 10947321.483770 2398265.043068 0.000000 0.000000 0.000000 0.000000
-5520254.666501 1680567.228902 0.000000 1680567.228902 5520254.666501 0.000000 0.000000 0.000000 0.000000
-18268825.285012 3320324.647454 0.000000 3320324.647454 18268825.285012 0.000000 0.000000 0.000000 0.000000
-3224351.060674 5871098.304384 0.000000 5871098.304384 3224351.060674 0.000000 0.000000 0.000000 0.000000
-6022794.873244 2699542.721881 0.000000 2699542.721881 6022794.873244 0.000000 0.000000 0.000000 0.000000
-706153.792810 3682369.914896 0.000000 3682369.914896 706153.792810 0.000000 0.000000 0.000000 0.000000
-6153707.945128 939682.992513 0.000000 939682.992513 6153707.945128 0.000000 0.000000 0.000000 0.000000
-5304476.824020 -4689951.585697 0.000000 -4689951.585697 5304476.824020 0.000000 0.000000 0.000000 0.000000
-3960277.128246 4991220.172068 0.000000 4991220.172068 3960277.128246 0.000000 0.000000 0.000000 0.000000
-4648888.282148 -3188587.576110 0.000000 -3188587.576110 4648888.282148 0.000000 0.000000 0.000000 0.000000
-6842976.724798 3972643.274217 0.000000 3972643.274217 6842976.724798 0.000000 0.000000 0.000000 0.000000
-5615314.225666 2920558.080604 0.000000 2920558.080604 5615314.225666 0.000000 0.000000 0.000000 0.000000
-14322793.310859 11254760.407138 0.000000 11254760.407138 14322793.310859 0.000000 0.000000 0.000000 0.000000
1851709.874594 -1936919.748292 0.000000 -1936919.748292 -1851709.874594 0.000000 0.000000 0.000000 0.000000
-11940073.708512 -2890432.797004 0.000000 -2890432.797004 11940073.708512 0.000000 0.000000 0.000000 0.000000
-3816623.241459 4655179.537491 0.000000 4655179.537491 3816623.241459 0.000000 0.000000 0.000000 0.000000
-7651900.178269 5316187.660044 0.000000 5316187.660044 7651900.178269 0.000000 0.000000 0.000000 0.000000
-521894.496764 -2710276.271049 0.000000 -2710276.271049 521894.496764 0.000000 0.000000 0.000000 0.000000
-1181473.247772 -11521909.506959 0.000000 -11521909.506959 1181473.247772 0.000000 0.000000 0.000000 0.000000
-7396257.780065 7341706.672881 0.000000 7341706.672881 7396257.780065 0.000000 0.000000 0.000000 0.000000
-2245014.430584 -3079093.707801 0.000000 -3079093.707801 2245014.430584 0.000000 0.000000 0.000000 0.000000
-6893745.197020 5516028.181310 0.000000 5516028.181310 6893745.197020 0.000000 0.000000 0.000000 0.000000
-11005618.434809 -2120539.637955 0.000000 -2120539.637955 11005618.434809 0.000000 0.000000 0.000000 0.000000
1289921.632506 635565.846973 0.000000 635565.846973 -1289921.632506 0.000000 0.000000 0.000000 0.000000
-9224162.223409 1577757.644224 0.000000 1577757.644224 9224162.223409 0.000000 0.000000 0.000000 0.000000
5569741.030333 2566767.433806 0.000000 2566767.433806 -5569741.030333 0.000000 0.000000 0.000000 0.000000
-9229631.100584 2275367.320542 0.000000 2275367.320542 9229631.100584 0.000000 0.000000 0.000000 0.000000
-452474.218005 3768932.329705 0.000000 3768932.329705 452474.218005 0.000000 0.000000 0.000000 0.000000
-5784990.006863 -3486575.854870 0.000000 -3486575.854870 5784990.006863 0.000000 0.000000 0.000000 0.000000
-9107056.640820 -5433138.898187 0.000000 -5433138.898187 9107056.640820 0.000000 0.000000 0.000000 0.000000
1378212.609042 6620609.669579 0.000000 6620609.669579 -1378212.609042 0.000000 0.000000 0.000000 0.000000
-6752844.515334 1048593.431214 0.000000 1048593.431214 6752844.515334 0.000000 0.000000 0.000000 0.000000
-3998643.566300 -13667850.447292 0.000000 -13667850.447292 3998643.566300 0.000000 0.000000 0.000000 0.000000
-5626971.528008 -2561805.975748 0.000000 -2561805.975748 5626971.528008 0.000000 0.000000 0.000000 0.000000
-6939515.780197 -5816508.057911 0.000000 -5816508.057911 6939515.780197 0.000000 0.000000 0.000000 0.000000
-4302054.428446 7714682.896916 0.000000 7714682.896916 4302054.428446 0.000000 0.000000 0.000000 0.000000
1557586.065830 -4281005.456910 0.000000 -4281005.456910 -1557586.065830 0.000000 0.000000 0.000000 0.000000
-6174370.903084 -5066015.196329 0.000000 -5066015.196329 6174370.903084 0.000000 0.000000 0.000000 0.000000
4106967.199807 4827935.491857 0.000000 4827935.491857 -4106967.199807 0.000000 0.000000 0.000000 0.000000
3177442.107827 -2024778.577941 0.000000 -2024778.577941 -3177442.107827 0.000000 0.000000 0.000000 0.000000
-4989452.956843 2148924.822913 0.000000 2148924.822913 4989452.956843 0.000000 0.000000 0.000000 0.000000
-8667499.706818 4492767.883227 0.000000 4492767.883227 8667499.706818 0.000000 0.000000 0.000000 0.000000
-2924568.302411 4852977.511667 0.000000 4852977.511667 2924568.302411 0.000000 0.000000 0.000000 0.000000
-2019769.350306 -8616245.465619 0.000000 -8616245.465619 2019769.350306 0.000000 0.000000 0.000000 0.000000
-5553002.757950 -11915488.328001 0.000000 -11915488.328001 5553002.757950 0.000000 0.000000 0.000000 0.000000
-16731680.953979 7521252.567546 0.000000 7521252.567546 16731680.953979 0.000000 0.000000 0.000000 0.000000
-4035878.285613 1136425.558150 0.000000 1136425.558150 4035878.285613 0.000000 0.000000 0.000000 0.000000
-119522.539242 -960064.305110 0.000000 -960064.305110 119522.539242 0.000000 0.000000 0.000000 0.000000
-18153028.710866 9605788.390597 0.000000 9605788.390597 18153028.710866 0.000000 0.000000 0.000000 0.000000
-3663815.571274 -4533688.304354 0.000000 -4533688.304354 3663815.571274 0.000000 0.000000 0.000000 0.000000
-16043896.353708 -1069548.332636 0.000000 -1069548.332636 16043896.353708 0.000000 0.000000 0.000000 0.000000
6560277.008756 3704701.990191 0.000000 3704701.990191 -6560277.008756 0.000000 0.000000 0.000000 0.000000
282628.398762 10291998.739645 0.000000 10291998.739645 -282628.398762 0.000000 0.000000 0.000000 0.000000
1833203.785716 6229544.712756 0.000000 6229544.712756 -1833203.785716 0.000000 0.000000 0.000000 0.000000
4414.382249 10413700.460554 0.000000 10413700.460554 -4414.382249 0.000000 0.000000 0.000000 0.000000
2770314.821659 5663077.513490 0.000000 5663077.513490 -2770314.821659 0.000000 0.000000 0.000000 0.000000
-1445152.200478 -480255.121246 0.000000 -480255.121246 1445152.200478 0.000000 0.000000 0.000000 0.000000
-8892955.010186 -6669300.148022 0.000000 -6669300.148022 8892955.010186 0.000000 0.000000 0.000000 0.000000
-1368108.893787 -5290413.170800 0.000000 -5290413.170800 1368108.893787 0.000000 0.000000 0.000000 0.000000
-12228413.141533 -7197712.980550 0.000000 -7197712.980550 12228413.141533 0.000000 0.000000 0.000000 0.000000
-256999.637391 -7275706.865344 0.000000 -7275706.865344 256999.637391 0.000000 0.000000 0.000000 0.000000
-5355770.415596 4438958.369225 0.000000 4438958.369225 5355770.415596 0.000000 0.000000 0.000000 0.000000
-10217590.139770 -8418450.526042 0.000000 -8418450.526042 10217590.139770 0.000000 0.000000 0.000000 0.000000
-4248640.957220 10927108.693856 0.000000 10927108.693856 4248640.957220 0.000000 0.000000 0.000000 0.000000
-10169019.854233 2828574.865644 0.000000 2828574.865644 10169019.854233 0.000000 0.000000 0.000000 0.000000
10257935.049662 -10143391.368372 0.000000 -10143391.368372 -10257935.049662 0.000000 0.000000 0.000000 0.000000
214012.541880 2568601.683784 0.000000 2568601.683784 -214012.541880 0.000000 0.000000 0.000000 0.000000
-4084840.752340 15286494.090390 0.000000 15286494.090390 4084840.752340 0.000000 0.000000 0.000000 0.000000
-3359233.334016 -9592830.185432 0.000000 -9592830.185432 3359233.334016 0.000000 0.000000 0.000000 0.000000
7828066.454646 -15774632.131376 0.000000 -15774632.131376 -7828066.454646 0.000000 0.000000 0.000000 0.000000
-455654.186642 1005073.860221 0.000000 1005073.860221 455654.186642 0.000000 0.000000 0.000000 0.000000
938795.730551 12983174.159274 0.000000 12983174.159274 -938795.730551 0.000000 0.000000 0.000000 0.000000
5527221.452978 13529159.015894 0.000000 13529159.015894 -5527221.452978 0.000000 0.000000 0.000000 0.000000
-1941580.522672 -17043833.912222 0.000000 -17043833.912222 1941580.522672 0.000000 0.000000 0.000000 0.000000
-5741529.837577 -809827.227359 0.000000 -809827.227359 5741529.837577 0.000000 0.000000 0.000000 0.000000
-6918325.650262 4547239.097662 0.000000 4547239.097662 6918325.650262 0.000000 0.000000 0.000000 0.000000
-8382163.599567 12385794.167992 0.000000 12385794.167992 8382163.599567 0.000000 0.000000 0.000000 0.000000
-4344252.553296 -440851.878800 0.000000 -440851.878800 4344252.553296 0.000000 0.000000 0.000000 0.000000
-4071447.445113 -13407990.983180 0.000000 -13407990.983180 4071447.445113 0.000000 0.000000 0.000000 0.000000
-4427574.372928 7894578.083355 0.000000 7894578.083355 4427574.372928 0.000000 0.000000 0.000000 0.000000
-1479570.856295 -10503278.176742 0.000000 -10503278.176742 1479570.856295 0.000000 0.000000 0.000000 0.000000
8713353.131164 9181054.600191 0.000000 9181054.600191 -8713353.131164 0.000000 0.000000 0.000000 0.000000
5962202.893377 750111.683381 0.000000 750111.683381 -5962202.893377 0.000000 0.000000 0.000000 0.000000
-2727072.161050 -10085872.078793 0.000000 -10085872.078793 2727072.161050 0.000000 0.000000 0.000000 0.000000
-2292961.037332 -173962.079071 0.000000 -173962.079071 2292961.037332 0.000000 0.000000 0.000000 0.000000
-9446694.758531 10119746.794486 0.000000 10119746.794486 9446694.758531 0.000000 0.000000 0.000000 0.000000
-1479536.870301 -9169631.970460 0.000000 -9169631.970460 1479536.870301 0.000000 0.000000 0.000000 0.000000
-9147940.790529 -87600.939017 0.000000 -87600.939017 9147940.790529 0.000000 0.000000 0.000000 0.000000
-8206556.941924 -2309125.358823 0.000000 -2309125.358823 8206556.941924 0.000000 0.000000 0.000000 0.000000
3057567.336252 -6220579.098846 0.000000 -6220579.098846 -3057567.336252 0.000000 0.000000 0.000000 0.000000
-2935186.598257 4919119.868480 0.000000 4919119.868480 2935186.598257 0.000000 0.000000 0.000000 0.000000
-611568.027430 -10712737.752745 0.000000 -10712737.752745 611568.027430 0.000000 0.000000 0.000000 0.000000
-12411209.589775 -622632.113611 0.000000 -622632.113611 12411209.589775 0.000000 0.000000 0.000000 0.000000
-6006616.897057 2036017.854133 0.000000 2036017.854133 6006616.897057 0.000000 0.000000 0.000000 0.000000
-178791.431455 -2040945.599115 0.000000 -2040945.599115 178791.431455 0.000000 0.000000 0.000000 0.000000
4801430.730210 -2547184.254168 0.000000 -2547184.254168 -4801430.730210 0.000000 0.000000 0.000000 0.000000
-13754512.272056 -1841424.763824 0.000000 -1841424.763824 13754512.272056 0.000000 0.000000 0.000000 0.000000
-4456340.727781 2366083.726967 0.000000 2366083.726967 4456340.727781 0.000000 0.000000 0.000000 0.000000
-3842839.643256 4856781.697452 0.000000 4856781.697452 3842839.643256 0.000000 0.000000 0.000000 0.000000
3541142.505724 6772988.501057 0.000000 6772988.501057 -3541142.505724 0.000000 0.000000 0.000000 0.000000
-348987.629395 908965.699965 0.000000 908965.699965 348987.629395 0.000000 0.000000 0.000000 0.000000
-7139206.389952 4416432.984116 0.000000 4416432.984116 7139206.389952 0.000000 0.000000 0.000000 0.000000
1222888.783382 3758382.635300 0.000000 3758382.635300 -1222888.783382 0.000000 0.000000 0.000000 0.000000
-9855528.025822 7261781.634948 0.000000 7261781.634948 9855528.025822 0.000000 0.000000 0.000000 0.000000
-2429334.918702 -119872.091349 0.000000 -119872.091349 2429334.918702 0.000000 0.000000 0.000000 0.000000
-44243.258662 -0.667659 0.000000 -0.667659 44243.258662 0.000000 0.000000 0.000000 0.000000
-2374330.956398 773374.988298 0.000000 773374.988298 2374330.956398 0.000000 0.000000 0.000000 0.000000
-42214.947299 -76.132459 0.000000 -76.132459 42214.947299 0.000000 0.000000 0.000000 0.000000
5926297.755133 5065621.013428 0.000000 5065621.013428 -5926297.755133 0.000000 0.000000 0.000000 0.000000
-6806156.816996 5294150.586595 0.000000 5294150.586595 6806156.816996 0.000000 0.000000 0.000000 0.000000
-2678210.559273 -6008674.170306 0.000000 -6008674.170306 2678210.559273 0.000000 0.000000 0.000000 0.000000
8726482.362151 -882597.842128 0.000000 -882597.842128 -8726482.362151 0.000000 0.000000 0.000000 0.000000
-4043439.538821 -1902726.167730 0.000000 -1902726.167730 4043439.538821 0.000000 0.000000 0.000000 0.000000
3063734.300462 -16597379.185759 0.000000 -16597379.185759 -3063734.300462 0.000000 0.000000 0.000000 0.000000
1268254.107144 -867725.881936 0.000000 -867725.881936 -1268254.107144 0.000000 0.000000 0.000000 0.000000
-4950697.788069 -5828916.581585 0.000000 -5828916.581585 4950697.788069 0.000000 0.000000 0.000000 0.000000
-2873101.385669 3325281.440064 0.000000 3325281.440064 2873101.385669 0.000000 0.000000 0.000000 0.000000
982847.343722 -20082009.599128 0.000000 -20082009.599128 -982847.343722 0.000000 0.000000 0.000000 0.000000
-10175091.260050 -5184141.127873 0.000000 -5184141.127873 10175091.260050 0.000000 0.000000 0.000000 0.000000
3801688.569529 -1192457.440778 0.000000 -1192457.440778 -3801688.569529 0.000000 0.000000 0.000000 0.000000
-7892328.334710 -1473896.663828 0.000000 -1473896.663828 7892328.334710 0.000000 0.000000 0.000000 0.000000
-5315372.755477 -3507231.221228 0.000000 -3507231.221228 5315372.755477 0.000000 0.000000 0.000000 0.000000
-3194551.697557 1108826.453941 0.000000 1108826.453941 3194551.697557 0.000000 0.000000 0.000000 0.000000
-3371296.196727 7635823.143314 0.000000 7635823.143314 3371296.196727 0.000000 0.000000 0.000000 0.000000
5042769.201897 32616.268747 0.000000 32616.268747 -5042769.201897 0.000000 0.000000 0.000000 0.000000
3859742.480233 11130234.824792 0.000000 11130234.824792 -3859742.480233 0.000000 0.000000 0.000000 0.000000
-2724979.943620 -29679121.070034 0.000000 -29679121.070034 2724979.943620 0.000000 0.000000 0.000000 0.000000
-5972004.544247 2250809.188411 0.000000 2250809.188411 5972004.544247 0.000000 0.000000 0.000000 0.000000
-4493053.071851 -7685454.240519 0.000000 -7685454.240519 4493053.071851 0.000000 0.000000 0.000000 0.000000
-5142959.763117 -15540537.432307 0.000000 -15540537.432307 5142959.763117 0.000000 0.000000 0.000000 0.000000
2788976.614781 -5585077.121084 0.000000 -5585077.121084 -2788976.614781 0.000000 0.000000 0.000000 0.000000
349686.782708 -4716551.889897 0.000000 -4716551.889897 -349686.782708 0.000000 0.000000 0.000000 0.000000
-3485506.726540 -71028.143437 0.000000 -71028.143437 3485506.726540 0.000000 0.000000 0.000000 0.000000
-3901154.062133 16240927.051292 0.000000 16240927.051292 3901154.062133 0.000000 0.000000 0.000000 0.000000
-2790.261376 0.000000 0.000000 0.000000 2790.261376 0.000000 0.000000 0.000000 0.000000
-882458.664780 -1858400.268712 0.000000 -1858400.268712 882458.664780 0.000000 0.000000 0.000000 0.000000
3370965.835301 8494471.495226 0.000000 8494471.495226 -3370965.835301 0.000000 0.000000 0.000000 0.000000
775560.916238 11313265.725005 0.000000 11313265.725005 -775560.916238 0.000000 0.000000 0.000000 0.000000
3723192.803699 -10759191.984314 0.000000 -10759191.984314 -3723192.803699 0.000000 0.000000 0.000000 0.000000
-332486.929862 -1982791.230025 0.000000 -1982791.230025 332486.929862 0.000000 0.000000 0.000000 0.000000
7111329.522024 -20308344.109163 0.000000 -20308344.109163 -7111329.522024 0.000000 0.000000 0.000000 0.000000
-5105606.403740 -436837.920343 0.000000 -436837.920343 5105606.403740 0.000000 0.000000 0.000000 0.000000
-9147997.213132 7527269.946090 0.000000 7527269.946090 9147997.213132 0.000000 0.000000 0.000000 0.000000
-2563909.212199 -3958495.128737 0.000000 -3958495.128737 2563909.212199 0.000000 0.000000 0.000000 0.000000
5790575.358655 7384924.562565 0.000000 7384924.562565 -5790575.358655 0.000000 0.000000 0.000000 0.000000
1725364.657752 5983311.784834 0.000000 5983311.784834 -1725364.657752 0.000000 0.000000 0.000000 0.000000
-155381.066320 33670.846797 0.000000 33670.846797 155381.066320 0.000000 0.000000 0.000000 0.000000
-13870424.053537 16165408.810162 0.000000 16165408.810162 13870424.053537 0.000000 0.000000 0.000000 0.000000
535994.242260 -355814.107100 0.000000 -355814.107100 -535994.242260 0.000000 0.000000 0.000000 0.000000
2101495.262436 -274171.957159 0.000000 -274171.957159 -2101495.262436 0.000000 0.000000 0.000000 0.000000
-3791107.301129 -4201052.675072 0.000000 -4201052.675072 3791107.301129 0.000000 0.000000 0.000000 0.000000
-3018457.549705 -5693055.204811 0.000000 -5693055.204811 3018457.549705 0.000000 0.000000 0.000000 0.000000
-3681393.959783 -8549983.080004 0.000000 -8549983.080004 3681393.959783 0.000000 0.000000 0.000000 0.000000
3375043.463385 -223513.983712 0.000000 -223513.983712 -3375043.463385 0.000000 0.000000 0.000000 0.000000
1996554.093264 -765205.434592 0.000000 -765205.434592 -1996554.093264 0.000000 0.000000 0.000000 0.000000
-1156815.874761 2513440.978954 0.000000 2513440.978954 1156815.874761 0.000000 0.000000 0.000000 0.000000
-2513644.292763 1525017.751705 0.000000 1525017.751705 2513644.292763 0.000000 0.000000 0.000000 0.000000
-8292010.687908 16423884.768566 0.000000 16423884.768566 8292010.687908 0.000000 0.000000 0.000000 0.000000
83931.030570 -6904585.310452 0.000000 -6904585.310452 -83931.030570 0.000000 0.000000 0.000000 0.000000
-9573743.028203 -5536111.037634 0.000000 -5536111.037634 9573743.028203 0.000000 0.000000 0.000000 0.000000
-1036382.482199 5772656.388714 0.000000 5772656.388714 1036382.482199 0.000000 0.000000 0.000000 0.000000
-7274309.389070 -11572617.207005 0.000000 -11572617.207005 7274309.389070 0.000000 0.000000 0.000000 0.000000
33061.580709 -164009.907311 0.000000 -164009.907311 -33061.580709 0.000000 0.000000 0.000000 0.000000
-69273.059819 -6.445296 0.000000 -6.445296 69273.059819 0.000000 0.000000 0.000000 0.000000
5449866.281971 14070373.360641 0.000000 14070373.360641 -5449866.281971 0.000000 0.000000 0.000000 0.000000
-3977353.332088 -3209002.679055 0.000000 -3209002.679055 3977353.332088 0.000000 0.000000 0.000000 0.000000
-15458793.014536 9537088.864245 0.000000 9537088.864245 15458793.014536 0.000000 0.000000 0.000000 0.000000
311224.899657 10547239.629825 0.000000 10547239.629825 -311224.899657 0.000000 0.000000 0.000000 0.000000
8449808.957577 -3991356.171469 0.000000 -3991356.171469 -8449808.957577 0.000000 0.000000 0.000000 0.000000
-5150796.182126 -5024273.024587 0.000000 -5024273.024587 5150796.182126 0.000000 0.000000 0.000000 0.000000
2963204.025326 12074521.911732 0.000000 12074521.911732 -2963204.025326 0.000000 0.000000 0.000000 0.000000
1635424.869167 1594795.220264 0.000000 1594795.220264 -1635424.869167 0.000000 0.000000 0.000000 0.000000
-8660772.614369 -9081023.136696 0.000000 -9081023.136696 8660772.614369 0.000000 0.000000 0.000000 0.000000
-6651991.794045 -6412168.965635 0.000000 -6412168.965635 6651991.794045 0.000000 0.000000 0.000000 0.000000
-4621750.299452 3652563.690958 0.000000 3652563.690958 4621750.299452 0.000000 0.000000 0.000000 0.000000
-148990.458212 1589564.624204 0.000000 1589564.624204 148990.458212 0.000000 0.000000 0.000000 0.000000
-5549721.347043 -9267438.939926 0.000000 -9267438.939926 5549721.347043 0.000000 0.000000 0.000000 0.000000
-6370046.777928 17669856.697153 0.000000 17669856.697153 6370046.777928 0.000000 0.000000 0.000000 0.000000
-266573.049430 -278818.009734 0.000000 -278818.009734 266573.049430 0.000000 0.000000 0.000000 0.000000
-6802396.666471 -1264381.259590 0.000000 -1264381.259590 6802396.666471 0.000000 0.000000 0.000000 0.000000
-4852894.287328 -4403485.612879 0.000000 -4403485.612879 4852894.287328 0.000000 0.000000 0.000000 0.000000
2186095.817042 -5295354.640642 0.000000 -5295354.640642 -2186095.817042 0.000000 0.000000 0.000000 0.000000
-1045427.920358 5374155.618792 0.000000 5374155.618792 1045427.920358 0.000000 0.000000 0.000000 0.000000
3745438.041244 -9925173.336731 0.000000 -9925173.336731 -3745438.041244 0.000000 0.000000 0.000000 0.000000
-5507168.532257 -3028682.805572 0.000000 -3028682.805572 5507168.532257 0.000000 0.000000 0.000000 0.000000
-4734524.521987 10073687.967984 0.000000 10073687.967984 4734524.521987 0.000000 0.000000 0.000000 0.000000
-8913614.493099 -8727311.428246 0.000000 -8727311.428246 8913614.493099 0.000000 0.000000 0.000000 0.000000
-4047640.591378 1928851.214338 0.000000 1928851.214338 4047640.591378 0.000000 0.000000 0.000000 0.000000
-6138925.464698 1612551.030825 0.000000 1612551.030825 6138925.464698 0.000000 0.000000 0.000000 0.000000
-7524913.823670 -6350454.903302 0.000000 -6350454.903302 7524913.823670 0.000000 0.000000 0.000000 0.000000
-7122003.696944 5560925.273776 0.000000 5560925.273776 7122003.696944 0.000000 0.000000 0.000000 0.000000
-1124626.157307 2877217.792401 0.000000 2877217.792401 1124626.157307 0.000000 0.000000 0.000000 0.000000
-2234591.795128 6581412.944053 0.000000 6581412.944053 2234591.795128 0.000000 0.000000 0.000000 0.000000
-169691.267497 -971344.418392 0.000000 -971344.418392 169691.267497 0.000000 0.000000 0.000000 0.000000
-2918653.393104 -185141.878805 0.000000 -185141.878805 2918653.393104 0.000000 0.000000 0.000000 0.000000
-2349131.605601 -326467.640212 0.000000 -326467.640212 2349131.605601 0.000000 0.000000 0.000000 0.000000
-4221352.596582 -1869644.308546 0.000000 -1869644.308546 4221352.596582 0.000000 0.000000 0.000000 0.000000
-716734.318712 -3091494.432323 0.000000 -3091494.432323 716734.318712 0.000000 0.000000 0.000000 0.000000
-6104911.998854 -1759272.086400 0.000000 -1759272.086400 6104911.998854 0.000000 0.000000 0.000000 0.000000
-5154181.092256 -116074.819550 0.000000 -116074.819550 5154181.092256 0.000000 0.000000 0.000000 0.000000
-4132107.978897 -1250878.390094 0.000000 -1250878.390094 4132107.978897 0.000000 0.000000 0.000000 0.000000
-2960633.400777 -246925.191685 0.000000 -246925.191685 2960633.400777 0.000000 0.000000 0.000000 0.000000
-588835.827556 895613.570343 0.000000 895613.570343 588835.827556 0.000000 0.000000 0.000000 0.000000
-2388633.469330 -1488794.048197 0.000000 -1488794.048197 2388633.469330 0.000000 0.000000 0.000000 0.000000
-458024.356522 5845238.612903 0.000000 5845238.612903 458024.356522 0.000000 0.000000 0.000000 0.000000
-3409518.251090 -3766207.730799 0.000000 -3766207.730799 3409518.251090 0.000000 0.000000 0.000000 0.000000
-2724516.063171 -4350005.491417 0.000000 -4350005.491417 2724516.063171 0.000000 0.000000 0.000000 0.000000
-5440880.245788 5566174.472798 0.000000 5566174.472798 5440880.245788 0.000000 0.000000 0.000000 0.000000
735314.013477 4452192.651216 0.000000 4452192.651216 -735314.013477 0.000000 0.000000 0.000000 0.000000
-1315123.965338 5779075.462020 0.000000 5779075.462020 1315123.965338 0.000000 0.000000 0.000000 0.000000
-1560993.375570 -6632235.719768 0.000000 -6632235.719768 1560993.375570 0.000000 0.000000 0.000000 0.000000
-6255164.650980 804086.939572 0.000000 804086.939572 6255164.650980 0.000000 0.000000 0.000000 0.000000
-2735303.831028 2064611.454584 0.000000 2064611.454584 2735303.831028 0.000000 0.000000 0.000000 0.000000
-7610545.648280 7714282.859340 0.000000 7714282.859340 7610545.648280 0.000000 0.000000 0.000000 0.000000
718159.114584 58980.781621 0.000000 58980.781621 -718159.114584 0.000000 0.000000 0.000000 0.000000
-9243368.725482 2664948.854951 0.000000 2664948.854951 9243368.725482 0.000000 0.000000 0.000000 0.000000
-2436885.839777 -4722141.068068 0.000000 -4722141.068068 2436885.839777 0.000000 0.000000 0.000000 0.000000
-2218297.572470 -149722.939693 0.000000 -149722.939693 2218297.572470 0.000000 0.000000 0.000000 0.000000
-3612660.904200 -2237451.777328 0.000000 -2237451.777328 3612660.904200 0.000000 0.000000 0.000000 0.000000
-6573305.050470 3957977.509565 0.000000 3957977.509565 6573305.050470 0.000000 0.000000 0.000000 0.000000
1870698.810061 -4384493.216882 0.000000 -4384493.216882 -1870698.810061 0.000000 0.000000 0.000000 0.000000
-964258.620892 -2991666.186117 0.000000 -2991666.186117 964258.620892 0.000000 0.000000 0.000000 0.000000
-1474804.926711 1252473.882013 0.000000 1252473.882013 1474804.926711 0.000000 0.000000 0.000000 0.000000
4433588.719573 -2442127.893001 0.000000 -2442127.893001 -4433588.719573 0.000000 0.000000 0.000000 0.000000
-4896403.566377 2668123.650317 0.000000 2668123.650317 4896403.566377 0.000000 0.000000 0.000000 0.000000
-7517741.316740 -1312139.469840 0.000000 -1312139.469840 7517741.316740 0.000000 0.000000 0.000000 0.000000
-2979990.387335 3805004.221722 0.000000 3805004.221722 2979990.387335 0.000000 0.000000 0.000000 0.000000
2960364.788477 -5004183.847644 0.000000 -5004183.847644 -2960364.788477 0.000000 0.000000 0.000000 0.000000
764270.969448 -4047602.048259 0.000000 -4047602.048259 -764270.969448 0.000000 0.000000 0.000000 0.000000
-5485241.826597 4051326.037524 0.000000 4051326.037524 5485241.826597 0.000000 0.000000 0.000000 0.000000
-878914.434214 -1218503.651450 0.000000 -1218503.651450 878914.434214 0.000000 0.000000 0.000000 0.000000
-3192455.898935 -3200610.177455 0.000000 -3200610.177455 3192455.898935 0.000000 0.000000 0.000000 0.000000
-2028950.447532 -1842381.060488 0.000000 -1842381.060488 2028950.447532 0.000000 0.000000 0.000000 0.000000
-6744879.338835 -11958049.142057 0.000000 -11958049.142057 6744879.338835 0.000000 0.000000 0.000000 0.000000
-987262.963711 4056088.322218 0.000000 4056088.322218 987262.963711 0.000000 0.000000 0.000000 0.000000
-3054410.439920 1973344.889979 0.000000 1973344.889979 3054410.439920 0.000000 0.000000 0.000000 0.000000
-10760509.510366 -3104460.452488 0.000000 -3104460.452488 10760509.510366 0.000000 0.000000 0.000000 0.000000
1817310.696269 2533702.235342 0.000000 2533702.235342 -1817310.696269 0.000000 0.000000 0.000000 0.000000
1097823.693775 5538824.518760 0.000000 5538824.518760 -1097823.693775 0.000000 0.000000 0.000000 0.000000
-4246604.681988 -628199.399309 0.000000 -628199.399309 4246604.681988 0.000000 0.000000 0.000000 0.000000
812349.210069 -889340.373049 0.000000 -889340.373049 -812349.210069 0.000000 0.000000 0.000000 0.000000
-9601869.217709 9221774.188426 0.000000 9221774.188426 9601869.217709 0.000000 0.000000 0.000000 0.000000
-9991829.390768 1171496.572770 0.000000 1171496.572770 9991829.390768 0.000000 0.000000 0.000000 0.000000
-1656310.338288 2767344.654684 0.000000 2767344.654684 1656310.338288 0.000000 0.000000 0.000000 0.000000
-6215931.581250 -13563670.191253 0.000000 -13563670.191253 6215931.581250 0.000000 0.000000 0.000000 0.000000
-7762882.345770 3574675.771266 0.000000 3574675.771266 7762882.345770 0.000000 0.000000 0.000000 0.000000
855365.591675 -325495.668649 0.000000 -325495.668649 -855365.591675 0.000000 0.000000 0.000000 0.000000
-2783971.695737 -7540804.644133 0.000000 -7540804.644133 2783971.695737 0.000000 0.000000 0.000000 0.000000
-211166.298541 -219727.439195 0.000000 -219727.439195 211166.298541 0.000000 0.000000 0.000000 0.000000
-13757898.171071 5041186.955576 0.000000 5041186.955576 13757898.171071 0.000000 0.000000 0.000000 0.000000
-4455224.204283 2686284.545910 0.000000 2686284.545910 4455224.204283 0.000000 0.000000 0.000000 0.000000
-7115150.716152 2950452.069503 0.000000 2950452.069503 7115150.716152 0.000000 0.000000 0.000000 0.000000
-681573.173212 -821941.786754 0.000000 -821941.786754 681573.173212 0.000000 0.000000 0.000000 0.000000
-2199745.345043 -1375674.652512 0.000000 -1375674.652512 2199745.345043 0.000000 0.000000 0.000000 0.000000
-17344.287845 -3399059.197879 0.000000 -3399059.197879 17344.287845 0.000000 0.000000 0.000000 0.000000
-868848.183346 2476704.248948 0.000000 2476704.248948 868848.183346 0.000000 0.000000 0.000000 0.000000
7156527.453602 5973211.712523 0.000000 5973211.712523 -7156527.453602 0.000000 0.000000 0.000000 0.000000
-6771343.367469 5405492.741701 0.000000 5405492.741701 6771343.367469 0.000000 0.000000 0.000000 0.000000
609475.299993 10744893.755305 0.000000 10744893.755305 -609475.299993 0.000000 0.000000 0.000000 0.000000
-5117244.880325 415070.897067 0.000000 415070.897067 5117244.880325 0.000000 0.000000 0.000000 0.000000
-12569131.895435 -2039606.532022 0.000000 -2039606.532022 12569131.895435 0.000000 0.000000 0.000000 0.000000
-6901279.546665 -2061859.512566 0.000000 -2061859.512566 6901279.546665 0.000000 0.000000 0.000000 0.000000
-2392406.107287 2153904.135101 0.000000 2153904.135101 2392406.107287 0.000000 0.000000 0.000000 0.000000
5262256.709993 -5093394.549231 0.000000 -5093394.549231 -5262256.709993 0.000000 0.000000 0.000000 0.000000
-1367443.944986 -7573452.615442 0.000000 -7573452.615442 1367443.944986 0.000000 0.000000 0.000000 0.000000
-6943758.282553 -6163883.994274 0.000000 -6163883.994274 6943758.282553 0.000000 0.000000 0.000000 0.000000
-3270819.991254 2606963.003624 0.000000 2606963.003624 3270819.991254 0.000000 0.000000 0.000000 0.000000
-6804017.104204 4763320.399148 0.000000 4763320.399148 6804017.104204 0.000000 0.000000 0.000000 0.000000
-7579741.117980 -7131022.257063 0.000000 -7131022.257063 7579741.117980 0.000000 0.000000 0.000000 0.000000
2240492.205856 -3628420.317481 0.000000 -3628420.317481 -2240492.205856 0.000000 0.000000 0.000000 0.000000
-11685928.633715 -3473777.475505 0.000000 -3473777.475505 11685928.633715 0.000000 0.000000 0.000000 0.000000
-9037897.460180 937185.234560 0.000000 937185.234560 9037897.460180 0.000000 0.000000 0.000000 0.000000
2676572.873997 2094488.098996 0.000000 2094488.098996 -2676572.873997 0.000000 0.000000 0.000000 0.000000
1358770.464792 -5323147.475568 0.000000 -5323147.475568 -1358770.464792 0.000000 0.000000 0.000000 0.000000
-584258.241503 -847295.535383 0.000000 -847295.535383 584258.241503 0.000000 0.000000 0.000000 0.000000
-3745070.618942 4766489.075695 0.000000 4766489.075695 3745070.618942 0.000000 0.000000 0.000000 0.000000
-4721197.806842 -2277530.047887 0.000000 -2277530.047887 4721197.806842 0.000000 0.000000 0.000000 0.000000
-1386837.141452 -10239406.021816 0.000000 -10239406.021816 1386837.141452 0.000000 0.000000 0.000000 0.000000
-7865594.635108 2124187.048630 0.000000 2124187.048630 7865594.635108 0.000000 0.000000 0.000000 0.000000
-140808.841049 -601243.169052 0.000000 -601243.169052 140808.841049 0.000000 0.000000 0.000000 0.000000
-5284259.652763 -1268791.270711 0.000000 -1268791.270711 5284259.652763 0.000000 0.000000 0.000000 0.000000
-755377.265448 4663388.398717 0.000000 4663388.398717 755377.265448 0.000000 0.000000 0.000000 0.000000
5838119.018689 4548767.779466 0.000000 4548767.779466 -5838119.018689 0.000000 0.000000 0.000000 0.000000
-73887.693188 -21544.835646 0.000000 -21544.835646 73887.693188 0.000000 0.000000 0.000000 0.000000
-12052039.731773 1909953.045903 0.000000 1909953.045903 12052039.731773 0.000000 0.000000 0.000000 0.000000
-3853668.190048 2234777.588690 0.000000 2234777.588690 3853668.190048 0.000000 0.000000 0.000000 0.000000
-5316524.026771 -2101841.010847 0.000000 -2101841.010847 5316524.026771 0.000000 0.000000 0.000000 0.000000
-2319271.659494 6619922.025194 0.000000 6619922.025194 2319271.659494 0.000000 0.000000 0.000000 0.000000
-5474553.107760 2034481.480682 0.000000 2034481.480682 5474553.107760 0.000000 0.000000 0.000000 0.000000
2124705.507364 2407345.669946 0.000000 2407345.669946 -2124705.507364 0.000000 0.000000 0.000000 0.000000
-5316380.495982 1744506.213199 0.000000 1744506.213199 5316380.495982 0.000000 0.000000 0.000000 0.000000
5312312.056238 2011765.376575 0.000000 2011765.376575 -5312312.056238 0.000000 0.000000 0.000000 0.000000
52110.088224 -42814.979317 0.000000 -42814.979317 -52110.088224 0.000000 0.000000 0.000000 0.000000
10749304.902803 5408655.238583 0.000000 5408655.238583 -10749304.902803 0.000000 0.000000 0.000000 0.000000
-2279265.235318 -6892747.340922 0.000000 -6892747.340922 2279265.235318 0.000000 0.000000 0.000000 0.000000
530197.289171 3682620.909473 0.000000 3682620.909473 -530197.289171 0.000000 0.000000 0.000000 0.000000
-5149188.616712 -6818773.515244 0.000000 -6818773.515244 5149188.616712 0.000000 0.000000 0.000000 0.000000
-7019856.896694 -893477.691530 0.000000 -893477.691530 7019856.896694 0.000000 0.000000 0.000000 0.000000
-5735316.414395 -6183699.521043 0.000000 -6183699.521043 5735316.414395 0.000000 0.000000 0.000000 0.000000
-4018317.339715 -7958051.860208 0.000000 -7958051.860208 4018317.339715 0.000000 0.000000 0.000000 0.000000
-2142911.025978 7184960.513025 0.000000 7184960.513025 2142911.025978 0.000000 0.000000 0.000000 0.000000
-11983780.569379 -1175887.652723 0.000000 -1175887.652723 11983780.569379 0.000000 0.000000 0.000000 0.000000
-9118313.383025 7304543.140787 0.000000 7304543.140787 9118313.383025 0.000000 0.000000 0.000000 0.000000
-380583.870001 -420031.803683 0.000000 -420031.803683 380583.870001 0.000000 0.000000 0.000000 0.000000
-48157.052730 -3785559.562276 0.000000 -3785559.562276 48157.052730 0.000000 0.000000 0.000000 0.000000
-1950493.287137 1678044.741569 0.000000 1678044.741569 1950493.287137 0.000000 0.000000 0.000000 0.000000
-2013510.984960 2766187.527251 0.000000 2766187.527251 2013510.984960 0.000000 0.000000 0.000000 0.000000
-3206423.403206 9199945.685813 0.000000 9199945.685813 3206423.403206 0.000000 0.000000 0.000000 0.000000
-84027.589712 -32242.359682 0.000000 -32242.359682 84027.589712 0.000000 0.000000 0.000000 0.000000
-63089.130174 19060.712484 0.000000 19060.712484 63089.130174 0.000000 0.000000 0.000000 0.000000
-10907580.429427 -503357.209336 0.000000 -503357.209336 10907580.429427 0.000000 0.000000 0.000000 0.000000
-4819512.187580 8851188.877798 0.000000 8851188.877798 4819512.187580 0.000000 0.000000 0.000000 0.000000
-4698872.897853 -992254.065899 0.000000 -992254.065899 4698872.897853 0.000000 0.000000 0.000000 0.000000
-2252673.845998 -1915221.254019 0.000000 -1915221.254019 2252673.845998 0.000000 0.000000 0.000000 0.000000
-6887193.106742 4761580.867171 0.000000 4761580.867171 6887193.106742 0.000000 0.000000 0.000000 0.000000
-122929.004809 25079.548388 0.000000 25079.548388 122929.004809 0.000000 0.000000 0.000000 0.000000
-4255691.612489 1188536.901761 0.000000 1188536.901761 4255691.612489 0.000000 0.000000 0.000000 0.000000
1455237.240808 -4311845.929187 0.000000 -4311845.929187 -1455237.240808 0.000000 0.000000 0.000000 0.000000
-3342062.340272 1361558.491442 0.000000 1361558.491442 3342062.340272 0.000000 0.000000 0.000000 0.000000
-2411993.221223 3071348.780531 0.000000 3071348.780531 2411993.221223 0.000000 0.000000 0.000000 0.000000
1308791.102942 -3218474.893087 0.000000 -3218474.893087 -1308791.102942 0.000000 0.000000 0.000000 0.000000
-1448801.204840 167399.564373 0.000000 167399.564373 1448801.204840 0.000000 0.000000 0.000000 0.000000
-670820.236095 -3689841.523476 0.000000 -3689841.523476 670820.236095 0.000000 0.000000 0.000000 0.000000
5585945.663723 4154643.582111 0.000000 4154643.582111 -5585945.663723 0.000000 0.000000 0.000000 0.000000
-2070.986839 29201.732466 0.000000 29201.732466 2070.986839 0.000000 0.000000 0.000000 0.000000
-7233374.053047 -3026599.363875 0.000000 -3026599.363875 7233374.053047 0.000000 0.000000 0.000000 0.000000
687687.456189 -2645106.922784 0.000000 -2645106.922784 -687687.456189 0.000000 0.000000 0.000000 0.000000
-1348158.413248 -946524.873235 0.000000 -946524.873235 1348158.413248 0.000000 0.000000 0.000000 0.000000
-81930.758550 60436.644398 0.000000 60436.644398 81930.758550 0.000000 0.000000 0.000000 0.000000
-96945.615553 69861.526802 0.000000 69861.526802 96945.615553 0.000000 0.000000 0.000000 0.000000
2503932.371473 7350877.022953 0.000000 7350877.022953 -2503932.371473 0.000000 0.000000 0.000000 0.000000
1827470.551316 857175.150631 0.000000 857175.150631 -1827470.551316 0.000000 0.000000 0.000000 0.000000
-851207.178554 1341672.402847 0.000000 1341672.402847 851207.178554 0.000000 0.000000 0.000000 0.000000
-5752609.751503 7219224.541410 0.000000 7219224.541410 5752609.751503 0.000000 0.000000 0.000000 0.000000
4303693.630558 7870196.853892 0.000000 7870196.853892 -4303693.630558 0.000000 0.000000 0.000000 0.000000
2783467.825000 1337865.928473 0.000000 1337865.928473 -2783467.825000 0.000000 0.000000 0.000000 0.000000
936037.045180 -2145344.208870 0.000000 -2145344.208870 -936037.045180 0.000000 0.000000 0.000000 0.000000
-1667921.759588 1776364.913529 0.000000 1776364.913529 1667921.759588 0.000000 0.000000 0.000000 0.000000
-5367789.736976 1919199.894684 0.000000 1919199.894684 5367789.736976 0.000000 0.000000 0.000000 0.000000
-2005890.275768 3194192.181113 0.000000 3194192.181113 2005890.275768 0.000000 0.000000 0.000000 0.000000
-348770.936799 -35629.962530 0.000000 -35629.962530 348770.936799 0.000000 0.000000 0.000000 0.000000
-9386027.966655 -8179871.119127 0.000000 -8179871.119127 9386027.966655 0.000000 0.000000 0.000000 0.000000
410070.270894 -4153493.248771 0.000000 -4153493.248771 -410070.270894 0.000000 0.000000 0.000000 0.000000
-6432490.380458 6876232.078358 0.000000 6876232.078358 6432490.380458 0.000000 0.000000 0.000000 0.000000
-4031176.998035 -3876943.487020 0.000000 -3876943.487020 4031176.998035 0.000000 0.000000 0.000000 0.000000
-541215.456545 -4108433.754140 0.000000 -4108433.754140 541215.456545 0.000000 0.000000 0.000000 0.000000
-2642333.704932 5911873.446026 0.000000 5911873.446026 2642333.704932 0.000000 0.000000 0.000000 0.000000
-429102.661844 -3598533.535294 0.000000 -3598533.535294 429102.661844 0.000000 0.000000 0.000000 0.000000
71264.337533 -124554.266680 0.000000 -124554.266680 -71264.337533 0.000000 0.000000 0.000000 0.000000
-6428282.977177 -1856476.808492 0.000000 -1856476.808492 6428282.977177 0.000000 0.000000 0.000000 0.000000
-1589602.213650 2954912.342550 0.000000 2954912.342550 1589602.213650 0.000000 0.000000 0.000000 0.000000
-3102712.067654 -5965091.810835 0.000000 -5965091.810835 3102712.067654 0.000000 0.000000 0.000000 0.000000
-1761448.151306 -5200081.860312 0.000000 -5200081.860312 1761448.151306 0.000000 0.000000 0.000000 0.000000
622362.815017 -5953444.714335 0.000000 -5953444.714335 -622362.815017 0.000000 0.000000 0.000000 0.000000
-1557963.422392 -1634434.077716 0.000000 -1634434.077716 1557963.422392 0.000000 0.000000 0.000000 0.000000
-927905.244160 -6589149.337727 0.000000 -6589149.337727 927905.244160 0.000000 0.000000 0.000000 0.000000
-3811277.737340 -3766943.845040 0.000000 -3766943.845040 3811277.737340 0.000000 0.000000 0.000000 0.000000
6058493.757789 -12886132.829784 0.000000 -12886132.829784 -6058493.757789 0.000000 0.000000 0.000000 0.000000
1287829.248296 -753464.855041 0.000000 -753464.855041 -1287829.248296 0.000000 0.000000 0.000000 0.000000
1004407.873493 -287094.536409 0.000000 -287094.536409 -1004407.873493 0.000000 0.000000 0.000000 0.000000
109614.194206 10218141.854074 0.000000 10218141.854074 -109614.194206 0.000000 0.000000 0.000000 0.000000
-1208689.100976 -1434299.020852 0.000000 -1434299.020852 1208689.100976 0.000000 0.000000 0.000000 0.000000
-3119640.929243 -553719.822255 0.000000 -553719.822255 3119640.929243 0.000000 0.000000 0.000000 0.000000
172581.456901 -4910596.428541 0.000000 -4910596.428541 -172581.456901 0.000000 0.000000 0.000000 0.000000
-105652.399482 -2120931.648285 0.000000 -2120931.648285 105652.399482 0.000000 0.000000 0.000000 0.000000
2331029.112534 -6904873.613705 0.000000 -6904873.613705 -2331029.112534 0.000000 0.000000 0.000000 0.000000
-2186964.596794 -1840119.248565 0.000000 -1840119.248565 2186964.596794 0.000000 0.000000 0.000000 0.000000
1829655.506892 986079.694446 0.000000 986079.694446 -1829655.506892 0.000000 0.000000 0.000000 0.000000
694936.793248 3683495.343941 0.000000 3683495.343941 -694936.793248 0.000000 0.000000 0.000000 0.000000
1412656.365817 257828.814679 0.000000 257828.814679 -1412656.365817 0.000000 0.000000 0.000000 0.000000
-3551745.336751 -497944.062663 0.000000 -497944.062663 3551745.336751 0.000000 0.000000 0.000000 0.000000
-284595.890287 -728424.844104 0.000000 -728424.844104 284595.890287 0.000000 0.000000 0.000000 0.000000
-6108534.762373 6288242.861802 0.000000 6288242.861802 6108534.762373 0.000000 0.000000 0.000000 0.000000
143864.483034 -362714.705249 0.000000 -362714.705249 -143864.483034 0.000000 0.000000 0.000000 0.000000
-5162824.144784 7683310.806282 0.000000 7683310.806282 5162824.144784 0.000000 0.000000 0.000000 0.000000
-744888.444737 2563497.645062 0.000000 2563497.645062 744888.444737 0.000000 0.000000 0.000000 0.000000
-1320009.112553 -426125.406028 0.000000 -426125.406028 1320009.112553 0.000000 0.000000 0.000000 0.000000
-1773926.630567 2963394.399641 0.000000 2963394.399641 1773926.630567 0.000000 0.000000 0.000000 0.000000
-9771014.883723 161400.246349 0.000000 161400.246349 9771014.883723 0.000000 0.000000 0.000000 0.000000
-11183590.438000 -5042113.693344 0.000000 -5042113.693344 11183590.438000 0.000000 0.000000 0.000000 0.000000
-6126747.976455 17891035.875251 0.000000 17891035.875251 6126747.976455 0.000000 0.000000 0.000000 0.000000
-879141.416244 2828326.038437 0.000000 2828326.038437 879141.416244 0.000000 0.000000 0.000000 0.000000
-114560.224930 -1972021.493527 0.000000 -1972021.493527 114560.224930 0.000000 0.000000 0.000000 0.000000
-4980226.585326 -34554.169611 0.000000 -34554.169611 4980226.585326 0.000000 0.000000 0.000000 0.000000
-12247577.216752 -689884.658854 0.000000 -689884.658854 12247577.216752 0.000000 0.000000 0.000000 0.000000
-2324077.286986 19116574.321648 0.000000 19116574.321648 2324077.286986 0.000000 0.000000 0.000000 0.000000
3209224.588766 2444280.172715 0.000000 2444280.172715 -3209224.588766 0.000000 0.000000 0.000000 0.000000
107724.918965 95174.906255 0.000000 95174.906255 -107724.918965 0.000000 0.000000 0.000000 0.000000
-755771.628246 846397.799934 0.000000 846397.799934 755771.628246 0.000000 0.000000 0.000000 0.000000
6652236.852042 -1366766.744748 0.000000 -1366766.744748 -6652236.852042 0.000000 0.000000 0.000000 0.000000
-5139988.525016 -4142038.348824 0.000000 -4142038.348824 5139988.525016 0.000000 0.000000 0.000000 0.000000
-2530325.165838 -9164026.415539 0.000000 -9164026.415539 2530325.165838 0.000000 0.000000 0.000000 0.000000
270401.018702 3451129.623305 0.000000 3451129.623305 -270401.018702 0.000000 0.000000 0.000000 0.000000
282239.363541 2075588.281815 0.000000 2075588.281815 -282239.363541 0.000000 0.000000 0.000000 0.000000
-336173.747490 3936175.641610 0.000000 3936175.641610 336173.747490 0.000000 0.000000 0.000000 0.000000
-5545457.302015 -6220648.467732 0.000000 -6220648.467732 5545457.302015 0.000000 0.000000 0.000000 0.000000
1127072.245895 1806389.642768 0.000000 1806389.642768 -1127072.245895 0.000000 0.000000 0.000000 0.000000
-1778236.652625 -2671098.810917 0.000000 -2671098.810917 1778236.652625 0.000000 0.000000 0.000000 0.000000
706961.320467 8481051.040696 0.000000 8481051.040696 -706961.320467 0.000000 0.000000 0.000000 0.000000
1205739.521846 -5623809.213978 0.000000 -5623809.213978 -1205739.521846 0.000000 0.000000 0.000000 0.000000
-1980859.999815 -2052466.207324 0.000000 -2052466.207324 1980859.999815 0.000000 0.000000 0.000000 0.000000
600755.039415 -4198758.982992 0.000000 -4198758.982992 -600755.039415 0.000000 0.000000 0.000000 0.000000
-2524330.080073 -612270.107829 0.000000 -612270.107829 2524330.080073 0.000000 0.000000 0.000000 0.000000
-1652482.009156 690574.263517 0.000000 690574.263517 1652482.009156 0.000000 0.000000 0.000000 0.000000
-1845231.319351 -2864170.285634 0.000000 -2864170.285634 1845231.319351 0.000000 0.000000 0.000000 0.000000
-2869986.909131 -5093394.602299 0.000000 -5093394.602299 2869986.909131 0.000000 0.000000 0.000000 0.000000
-208790.741075 -3408333.939718 0.000000 -3408333.939718 208790.741075 0.000000 0.000000 0.000000 0.000000
433283.032029 3493548.557389 0.000000 3493548.557389 -433283.032029 0.000000 0.000000 0.000000 0.000000
607115.926395 -1953161.964309 0.000000 -1953161.964309 -607115.926395 0.000000 0.000000 0.000000 0.000000
-4596452.304339 -1919917.546071 0.000000 -1919917.546071 4596452.304339 0.000000 0.000000 0.000000 0.000000
1036016.977771 -3235364.910335 0.000000 -3235364.910335 -1036016.977771 0.000000 0.000000 0.000000 0.000000
-388471.948071 -378061.174719 0.000000 -378061.174719 388471.948071 0.000000 0.000000 0.000000 0.000000
-1935744.879843 2296286.051096 0.000000 2296286.051096 1935744.879843 0.000000 0.000000 0.000000 0.000000
-1474538.715283 -3770386.369261 0.000000 -3770386.369261 1474538.715283 0.000000 0.000000 0.000000 0.000000
-1091009.899355 4190279.016760 0.000000 4190279.016760 1091009.899355 0.000000 0.000000 0.000000 0.000000
-3285316.394365 -6570939.369647 0.000000 -6570939.369647 3285316.394365 0.000000 0.000000 0.000000 0.000000
-1830306.981416 2788468.302650 0.000000 2788468.302650 1830306.981416 0.000000 0.000000 0.000000 0.000000
686433.043855 308651.424525 0.000000 308651.424525 -686433.043855 0.000000 0.000000 0.000000 0.000000
-1369982.994905 3157282.481461 0.000000 3157282.481461 1369982.994905 0.000000 0.000000 0.000000 0.000000
-2762661.527071 -225494.933484 0.000000 -225494.933484 2762661.527071 0.000000 0.000000 0.000000 0.000000
559509.336248 -4181565.550894 0.000000 -4181565.550894 -559509.336248 0.000000 0.000000 0.000000 0.000000
677492.205601 867093.880083 0.000000 867093.880083 -677492.205601 0.000000 0.000000 0.000000 0.000000
409074.600370 -1213616.396164 0.000000 -1213616.396164 -409074.600370 0.000000 0.000000 0.000000 0.000000
-1134422.491540 600006.040507 0.000000 600006.040507 1134422.491540 0.000000 0.000000 0.000000 0.000000
-9064522.638531 -449737.576852 0.000000 -449737.576852 9064522.638531 0.000000 0.000000 0.000000 0.000000
913246.141676 -958725.893274 0.000000 -958725.893274 -913246.141676 0.000000 0.000000 0.000000 0.000000
-658617.023416 -319541.950755 0.000000 -319541.950755 658617.023416 0.000000 0.000000 0.000000 0.000000
894746.373019 -28351.190462 0.000000 -28351.190462 -894746.373019 0.000000 0.000000 0.000000 0.000000
-4329692.809016 -4509737.227638 0.000000 -4509737.227638 4329692.809016 0.000000 0.000000 0.000000 0.000000
-344509.437679 4389420.062689 0.000000 4389420.062689 344509.437679 0.000000 0.000000 0.000000 0.000000
-3054670.086090 2055758.563626 0.000000 2055758.563626 3054670.086090 0.000000 0.000000 0.000000 0.000000
3486693.031890 -2407924.948369 0.000000 -2407924.948369 -3486693.031890 0.000000 0.000000 0.000000 0.000000
-5005826.924626 -4794080.466064 0.000000 -4794080.466064 5005826.924626 0.000000 0.000000 0.000000 0.000000
3006536.531664 -8278716.538118 0.000000 -8278716.538118 -3006536.531664 0.000000 0.000000 0.000000 0.000000
-2490523.040347 -2037136.962413 0.000000 -2037136.962413 2490523.040347 0.000000 0.000000 0.000000 0.000000
-1213301.188832 2655075.250062 0.000000 2655075.250062 1213301.188832 0.000000 0.000000 0.000000 0.000000
-5003436.900609 -3453554.617186 0.000000 -3453554.617186 5003436.900609 0.000000 0.000000 0.000000 0.000000
-158775.619025 3048793.874883 0.000000 3048793.874883 158775.619025 0.000000 0.000000 0.000000 0.000000
454156.218316 745755.994260 0.000000 745755.994260 -454156.218316 0.000000 0.000000 0.000000 0.000000
-3568196.779826 871120.823604 0.000000 871120.823604 3568196.779826 0.000000 0.000000 0.000000 0.000000
-1887937.954592 3329898.232032 0.000000 3329898.232032 1887937.954592 0.000000 0.000000 0.000000 0.000000
-1559282.403174 4547890.434670 0.000000 4547890.434670 1559282.403174 0.000000 0.000000 0.000000 0.000000
-383973.297927 2808762.770949 0.000000 2808762.770949 383973.297927 0.000000 0.000000 0.000000 0.000000
2927021.101891 141480.659144 0.000000 141480.659144 -2927021.101891 0.000000 0.000000 0.000000 0.000000
-2431298.466135 2469108.480234 0.000000 2469108.480234 2431298.466135 0.000000 0.000000 0.000000 0.000000
-3781500.729242 -3273274.930429 0.000000 -3273274.930429 3781500.729242 0.000000 0.000000 0.000000 0.000000
-397921.872978 412474.016490 0.000000 412474.016490 397921.872978 0.000000 0.000000 0.000000 0.000000
1419140.038180 2275667.316814 0.000000 2275667.316814 -1419140.038180 0.000000 0.000000 0.000000 0.000000
267229.668380 -2732555.164952 0.000000 -2732555.164952 -267229.668380 0.000000 0.000000 0.000000 0.000000
-698903.615360 22317.489665 0.000000 22317.489665 698903.615360 0.000000 0.000000 0.000000 0.000000
-2691884.454923 2926484.238704 0.000000 2926484.238704 2691884.454923 0.000000 0.000000 0.000000 0.000000
5225954.433924 -996046.953984 0.000000 -996046.953984 -5225954.433924 0.000000 0.000000 0.000000 0.000000
-2546166.530108 237245.035534 0.000000 237245.035534 2546166.530108 0.000000 0.000000 0.000000 0.000000
1981285.466203 -2037473.185990 0.000000 -2037473.185990 -1981285.466203 0.000000 0.000000 0.000000 0.000000
-1039751.512698 403439.067785 0.000000 403439.067785 1039751.512698 0.000000 0.000000 0.000000 0.000000
-663669.763602 79948.168106 0.000000 79948.168106 663669.763602 0.000000 0.000000 0.000000 0.000000
-29960.064530 1071681.343942 0.000000 1071681.343942 29960.064530 0.000000 0.000000 0.000000 0.000000
-306222.992362 2841047.631108 0.000000 2841047.631108 306222.992362 0.000000 0.000000 0.000000 0.000000
-1641331.987657 1993398.995487 0.000000 1993398.995487 1641331.987657 0.000000 0.000000 0.000000 0.000000
804412.964973 5867161.372988 0.000000 5867161.372988 -804412.964973 0.000000 0.000000 0.000000 0.000000
-2992121.275112 575396.861727 0.000000 575396.861727 2992121.275112 0.000000 0.000000 0.000000 0.000000
-2568913.717835 99803.807753 0.000000 99803.807753 2568913.717835 0.000000 0.000000 0.000000 0.000000
1735039.672417 408513.600565 0.000000 408513.600565 -1735039.672417 0.000000 0.000000 0.000000 0.000000
4416559.687991 -1349578.194094 0.000000 -1349578.194094 -4416559.687991 0.000000 0.000000 0.000000 0.000000
-5496311.247535 8067247.370144 0.000000 8067247.370144 5496311.247535 0.000000 0.000000 0.000000 0.000000
-3069172.795530 -6752051.155958 0.000000 -6752051.155958 3069172.795530 0.000000 0.000000 0.000000 0.000000
-1385065.270066 1708968.778959 0.000000 1708968.778959 1385065.270066 0.000000 0.000000 0.000000 0.000000
-513397.095320 390656.208779 0.000000 390656.208779 513397.095320 0.000000 0.000000 0.000000 0.000000
-5569313.067481 8296687.999096 0.000000 8296687.999096 5569313.067481 0.000000 0.000000 0.000000 0.000000
2429790.289844 367362.304356 0.000000 367362.304356 -2429790.289844 0.000000 0.000000 0.000000 0.000000
-1434153.252691 2659241.862309 0.000000 2659241.862309 1434153.252691 0.000000 0.000000 0.000000 0.000000
-8405309.178929 2562888.625708 0.000000 2562888.625708 8405309.178929 0.000000 0.000000 0.000000 0.000000
2245286.885184 -5160013.971387 0.000000 -5160013.971387 -2245286.885184 0.000000 0.000000 0.000000 0.000000
-1262035.166139 -3743825.197244 0.000000 -3743825.197244 1262035.166139 0.000000 0.000000 0.000000 0.000000
-3422616.694302 -1926651.249417 0.000000 -1926651.249417 3422616.694302 0.000000 0.000000 0.000000 0.000000
-49758.325093 5025462.267820 0.000000 5025462.267820 49758.325093 0.000000 0.000000 0.000000 0.000000
-354488.923689 -2643626.809646 0.000000 -2643626.809646 354488.923689 0.000000 0.000000 0.000000 0.000000
-3348086.905159 6809206.991809 0.000000 6809206.991809 3348086.905159 0.000000 0.000000 0.000000 0.000000
928335.963449 -1359584.834645 0.000000 -1359584.834645 -928335.963449 0.000000 0.000000 0.000000 0.000000
-481669.890846 -204913.267701 0.000000 -204913.267701 481669.890846 0.000000 0.000000 0.000000 0.000000
2402949.978704 -1191504.523415 0.000000 -1191504.523415 -2402949.978704 0.000000 0.000000 0.000000 0.000000
146365.336243 1923692.559601 0.000000 1923692.559601 -146365.336243 0.000000 0.000000 0.000000 0.000000
-1835938.508742 515101.853132 0.000000 515101.853132 1835938.508742 0.000000 0.000000 0.000000 0.000000
-3151595.059716 8361367.445614 0.000000 8361367.445614 3151595.059716 0.000000 0.000000 0.000000 0.000000
-630977.594887 27701.099758 0.000000 27701.099758 630977.594887 0.000000 0.000000 0.000000 0.000000
-6375650.727082 -1581162.861871 0.000000 -1581162.861871 6375650.727082 0.000000 0.000000 0.000000 0.000000
25686.874159 -6090131.036113 0.000000 -6090131.036113 -25686.874159 0.000000 0.000000 0.000000 0.000000
-5317801.761874 3317892.558294 0.000000 3317892.558294 5317801.761874 0.000000 0.000000 0.000000 0.000000
-645938.163537 -2112565.087696 0.000000 -2112565.087696 645938.163537 0.000000 0.000000 0.000000 0.000000
1515448.139336 927259.796298 0.000000 927259.796298 -1515448.139336 0.000000 0.000000 0.000000 0.000000
-653855.422925 -6330744.038616 0.000000 -6330744.038616 653855.422925 0.000000 0.000000 0.000000 0.000000
-40535.484091 -747515.583170 0.000000 -747515.583170 40535.484091 0.000000 0.000000 0.000000 0.000000
-854898.372762 3082221.673595 0.000000 3082221.673595 854898.372762 0.000000 0.000000 0.000000 0.000000
-136875.584084 -4791909.258920 0.000000 -4791909.258920 136875.584084 0.000000 0.000000 0.000000 0.000000
-2608845.720091 -3064956.134519 0.000000 -3064956.134519 2608845.720091 0.000000 0.000000 0.000000 0.000000
-1272586.056100 2174918.095782 0.000000 2174918.095782 1272586.056100 0.000000 0.000000 0.000000 0.000000
-257905.657933 1097362.754714 0.000000 1097362.754714 257905.657933 0.000000 0.000000 0.000000 0.000000
-1756067.773891 3362038.996680 0.000000 3362038.996680 1756067.773891 0.000000 0.000000 0.000000 0.000000
-194897.727776 -1350159.409567 0.000000 -1350159.409567 194897.727776 0.000000 0.000000 0.000000 0.000000
2033868.501475 1162346.933564 0.000000 1162346.933564 -2033868.501475 0.000000 0.000000 0.000000 0.000000
38173.004449 -11846.247321 0.000000 -11846.247321 -38173.004449 0.000000 0.000000 0.000000 0.000000
1259594.564729 10539294.220877 0.000000 10539294.220877 -1259594.564729 0.000000 0.000000 0.000000 0.000000
-1125323.766580 -2090371.468295 0.000000 -2090371.468295 1125323.766580 0.000000 0.000000 0.000000 0.000000
1767154.130956 -2711391.336009 0.000000 -2711391.336009 -1767154.130956 0.000000 0.000000 0.000000 0.000000
259140.334365 -7730766.500318 0.000000 -7730766.500318 -259140.334365 0.000000 0.000000 0.000000 0.000000
-4966728.271691 -5167368.862443 0.000000 -5167368.862443 4966728.271691 0.000000 0.000000 0.000000 0.000000
2583860.795382 3800882.323581 0.000000 3800882.323581 -2583860.795382 0.000000 0.000000 0.000000 0.000000
-421185.880675 434558.656285 0.000000 434558.656285 421185.880675 0.000000 0.000000 0.000000 0.000000
-925795.590358 -8587215.032817 0.000000 -8587215.032817 925795.590358 0.000000 0.000000 0.000000 0.000000
666510.500725 -2032152.132492 0.000000 -2032152.132492 -666510.500725 0.000000 0.000000 0.000000 0.000000
-507507.965085 -863388.582819 0.000000 -863388.582819 507507.965085 0.000000 0.000000 0.000000 0.000000
-3427.419715 -849867.174921 0.000000 -849867.174921 3427.419715 0.000000 0.000000 0.000000 0.000000
1121252.333087 -3278509.723912 0.000000 -3278509.723912 -1121252.333087 0.000000 0.000000 0.000000 0.000000
-1454648.996210 -3587687.499643 0.000000 -3587687.499643 1454648.996210 0.000000 0.000000 0.000000 0.000000
1832767.254083 -1278907.028690 0.000000 -1278907.028690 -1832767.254083 0.000000 0.000000 0.000000 0.000000
-1204810.599979 7415119.067016 0.000000 7415119.067016 1204810.599979 0.000000 0.000000 0.000000 0.000000
394146.980240 1226305.805136 0.000000 1226305.805136 -394146.980240 0.000000 0.000000 0.000000 0.000000
-1697181.371828 3096944.965919 0.000000 3096944.965919 1697181.371828 0.000000 0.000000 0.000000 0.000000
-63344.468599 0.000000 0.000000 0.000000 63344.468599 0.000000 0.000000 0.000000 0.000000
1113458.847997 5134201.024248 0.000000 5134201.024248 -1113458.847997 0.000000 0.000000 0.000000 0.000000
161069.418844 -2962887.608841 0.000000 -2962887.608841 -161069.418844 0.000000 0.000000 0.000000 0.000000
871773.814493 -3011880.814169 0.000000 -3011880.814169 -871773.814493 0.000000 0.000000 0.000000 0.000000
-9904968.386468 -3429208.139616 0.000000 -3429208.139616 9904968.386468 0.000000 0.000000 0.000000 0.000000
-2152029.292329 -1449602.030139 0.000000 -1449602.030139 2152029.292329 0.000000 0.000000 0.000000 0.000000
-915316.662508 401027.777515 0.000000 401027.777515 915316.662508 0.000000 0.000000 0.000000 0.000000
-1903508.040215 2015509.181118 0.000000 2015509.181118 1903508.040215 0.000000 0.000000 0.000000 0.000000
-1312724.683184 1067907.423531 0.000000 1067907.423531 1312724.683184 0.000000 0.000000 0.000000 0.000000
-7369923.907286 10983623.520471 0.000000 10983623.520471 7369923.907286 0.000000 0.000000 0.000000 0.000000
-155174.667260 163271.483319 0.000000 163271.483319 155174.667260 0.000000 0.000000 0.000000 0.000000
-158579.180019 -412318.939618 0.000000 -412318.939618 158579.180019 0.000000 0.000000 0.000000 0.000000
1051452.284552 2436694.625043 0.000000 2436694.625043 -1051452.284552 0.000000 0.000000 0.000000 0.000000
-23872.270722 13697.277726 0.000000 13697.277726 23872.270722 0.000000 0.000000 0.000000 0.000000
-3309062.599190 884762.788857 0.000000 884762.788857 3309062.599190 0.000000 0.000000 0.000000 0.000000
-1316897.567282 -1979005.727132 0.000000 -1979005.727132 1316897.567282 0.000000 0.000000 0.000000 0.000000
-1798674.032730 443020.859149 0.000000 443020.859149 1798674.032730 0.000000 0.000000 0.000000 0.000000
-129058.673329 3979.882566 0.000000 3979.882566 129058.673329 0.000000 0.000000 0.000000 0.000000
-123223.936699 2401743.620733 0.000000 2401743.620733 123223.936699 0.000000 0.000000 0.000000 0.000000
-1051756.545804 1011151.145684 0.000000 1011151.145684 1051756.545804 0.000000 0.000000 0.000000 0.000000
-2942172.963496 315617.808398 0.000000 315617.808398 2942172.963496 0.000000 0.000000 0.000000 0.000000
4500291.829899 -1880573.098361 0.000000 -1880573.098361 -4500291.829899 0.000000 0.000000 0.000000 0.000000
-495603.896232 109373.153515 0.000000 109373.153515 495603.896232 0.000000 0.000000 0.000000 0.000000
344832.304628 -616396.821491 0.000000 -616396.821491 -344832.304628 0.000000 0.000000 0.000000 0.000000
-3003802.868939 -5635761.346679 0.000000 -5635761.346679 3003802.868939 0.000000 0.000000 0.000000 0.000000
-6158178.437508 -8270087.875403 0.000000 -8270087.875403 6158178.437508 0.000000 0.000000 0.000000 0.000000
-1026358.247542 -6399020.787775 0.000000 -6399020.787775 1026358.247542 0.000000 0.000000 0.000000 0.000000
1397515.724344 789503.678223 0.000000 789503.678223 -1397515.724344 0.000000 0.000000 0.000000 0.000000
-1405338.778226 207650.661272 0.000000 207650.661272 1405338.778226 0.000000 0.000000 0.000000 0.000000
-1697023.911153 126721.555713 0.000000 126721.555713 1697023.911153 0.000000 0.000000 0.000000 0.000000
526649.333938 3452093.915550 0.000000 3452093.915550 -526649.333938 0.000000 0.000000 0.000000 0.000000
-644432.004791 740187.372239 0.000000 740187.372239 644432.004791 0.000000 0.000000 0.000000 0.000000
-504869.185165 151801.581765 0.000000 151801.581765 504869.185165 0.000000 0.000000 0.000000 0.000000
-3033593.042939 3056360.839949 0.000000 3056360.839949 3033593.042939 0.000000 0.000000 0.000000 0.000000
382018.585770 -2345073.794701 0.000000 -2345073.794701 -382018.585770 0.000000 0.000000 0.000000 0.000000
-1235592.623349 -3187436.355277 0.000000 -3187436.355277 1235592.623349 0.000000 0.000000 0.000000 0.000000
207295.722765 647889.436017 0.000000 647889.436017 -207295.722765 0.000000 0.000000 0.000000 0.000000
-5268727.803112 4256008.492465 0.000000 4256008.492465 5268727.803112 0.000000 0.000000 0.000000 0.000000
-221259.748472 -352113.002125 0.000000 -352113.002125 221259.748472 0.000000 0.000000 0.000000 0.000000
-6543131.556475 -366069.462576 0.000000 -366069.462576 6543131.556475 0.000000 0.000000 0.000000 0.000000
-3018459.372881 2298442.102473 0.000000 2298442.102473 3018459.372881 0.000000 0.000000 0.000000 0.000000
3292550.214421 -452387.731661 0.000000 -452387.731661 -3292550.214421 0.000000 0.000000 0.000000 0.000000
-1483336.934175 -3760988.580738 0.000000 -3760988.580738 1483336.934175 0.000000 0.000000 0.000000 0.000000
-196043.300318 -195103.344614 0.000000 -195103.344614 196043.300318 0.000000 0.000000 0.000000 0.000000
-2296219.576887 957544.786889 0.000000 957544.786889 2296219.576887 0.000000 0.000000 0.000000 0.000000
-10570297.291627 -7580847.777616 0.000000 -7580847.777616 10570297.291627 0.000000 0.000000 0.000000 0.000000
-2262940.235184 -7618535.406264 0.000000 -7618535.406264 2262940.235184 0.000000 0.000000 0.000000 0.000000
-852085.130113 -562316.521716 0.000000 -562316.521716 852085.130113 0.000000 0.000000 0.000000 0.000000
-102572.393171 -7837.072873 0.000000 -7837.072873 102572.393171 0.000000 0.000000 0.000000 0.000000
926990.714020 57987.800044 0.000000 57987.800044 -926990.714020 0.000000 0.000000 0.000000 0.000000
107811.063336 -518736.363372 0.000000 -518736.363372 -107811.063336 0.000000 0.000000 0.000000 0.000000
-8430085.499476 -5321368.807375 0.000000 -5321368.807375 8430085.499476 0.000000 0.000000 0.000000 0.000000
-3082233.372097 1365786.215380 0.000000 1365786.215380 3082233.372097 0.000000 0.000000 0.000000 0.000000
-2499540.125304 -1246699.831908 0.000000 -1246699.831908 2499540.125304 0.000000 0.000000 0.000000 0.000000
-340823.124737 1405155.240144 0.000000 1405155.240144 340823.124737 0.000000 0.000000 0.000000 0.000000
-128848.826064 23352.116079 0.000000 23352.116079 128848.826064 0.000000 0.000000 0.000000 0.000000
-5905616.296186 4641148.135693 0.000000 4641148.135693 5905616.296186 0.000000 0.000000 0.000000 0.000000
148557.517722 675996.842540 0.000000 675996.842540 -148557.517722 0.000000 0.000000 0.000000 0.000000
208832.505870 1709.871369 0.000000 1709.871369 -208832.505870 0.000000 0.000000 0.000000 0.000000
-113977.584684 -134572.443770 0.000000 -134572.443770 113977.584684 0.000000 0.000000 0.000000 0.000000
-178002.179351 -12244410.331982 0.000000 -12244410.331982 178002.179351 0.000000 0.000000 0.000000 0.000000
428592.218030 2352831.573738 0.000000 2352831.573738 -428592.218030 0.000000 0.000000 0.000000 0.000000
101563.246128 116913.460142 0.000000 116913.460142 -101563.246128 0.000000 0.000000 0.000000 0.000000
496797.665342 3165728.376710 0.000000 3165728.376710 -496797.665342 0.000000 0.000000 0.000000 0.000000
-5987903.732884 -7479700.217102 0.000000 -7479700.217102 5987903.732884 0.000000 0.000000 0.000000 0.000000
1999699.406273 -2169545.792293 0.000000 -2169545.792293 -1999699.406273 0.000000 0.000000 0.000000 0.000000
-1459490.752478 3597034.482847 0.000000 3597034.482847 1459490.752478 0.000000 0.000000 0.000000 0.000000
-1571688.312818 230049.639531 0.000000 230049.639531 1571688.312818 0.000000 0.000000 0.000000 0.000000
-3701424.653034 4339109.868727 0.000000 4339109.868727 3701424.653034 0.000000 0.000000 0.000000 0.000000
105854.367270 -198256.425727 0.000000 -198256.425727 -105854.367270 0.000000 0.000000 0.000000 0.000000
1627186.852366 412432.241338 0.000000 412432.241338 -1627186.852366 0.000000 0.000000 0.000000 0.000000
472802.326210 -131159.897203 0.000000 -131159.897203 -472802.326210 0.000000 0.000000 0.000000 0.000000
-10754628.345604 -3627837.891695 0.000000 -3627837.891695 10754628.345604 0.000000 0.000000 0.000000 0.000000
-93278.368525 1144975.464106 0.000000 1144975.464106 93278.368525 0.000000 0.000000 0.000000 0.000000
-989690.560626 4181200.805721 0.000000 4181200.805721 989690.560626 0.000000 0.000000 0.000000 0.000000
-626444.905306 -352202.697076 0.000000 -352202.697076 626444.905306 0.000000 0.000000 0.000000 0.000000
-336010.277466 599016.317977 0.000000 599016.317977 336010.277466 0.000000 0.000000 0.000000 0.000000
-679755.944141 2841379.986899 0.000000 2841379.986899 679755.944141 0.000000 0.000000 0.000000 0.000000
-1958328.622157 1775063.478820 0.000000 1775063.478820 1958328.622157 0.000000 0.000000 0.000000 0.000000
-677333.508639 -2657948.973840 0.000000 -2657948.973840 677333.508639 0.000000 0.000000 0.000000 0.000000
-375217.873871 486776.990313 0.000000 486776.990313 375217.873871 0.000000 0.000000 0.000000 0.000000
-311438.549501 -163383.055373 0.000000 -163383.055373 311438.549501 0.000000 0.000000 0.000000 0.000000
-712827.278837 46778.838897 0.000000 46778.838897 712827.278837 0.000000 0.000000 0.000000 0.000000
1456961.273061 2067883.873051 0.000000 2067883.873051 -1456961.273061 0.000000 0.000000 0.000000 0.000000
-723608.434591 7707.623753 0.000000 7707.623753 723608.434591 0.000000 0.000000 0.000000 0.000000
-591422.789971 -1405159.211665 0.000000 -1405159.211665 591422.789971 0.000000 0.000000 0.000000 0.000000
-1757483.516222 1830909.549903 0.000000 1830909.549903 1757483.516222 0.000000 0.000000 0.000000 0.000000
-671374.653166 22006.058932 0.000000 22006.058932 671374.653166 0.000000 0.000000 0.000000 0.000000
-3264451.201555 -2488402.251462 0.000000 -2488402.251462 3264451.201555 0.000000 0.000000 0.000000 0.000000
-631838.225404 -3300556.473251 0.000000 -3300556.473251 631838.225404 0.000000 0.000000 0.000000 0.000000
-503764.660528 32930.149917 0.000000 32930.149917 503764.660528 0.000000 0.000000 0.000000 0.000000
325150.941930 1846233.128578 0.000000 1846233.128578 -325150.941930 0.000000 0.000000 0.000000 0.000000
-2378211.397095 -1821905.228507 0.000000 -1821905.228507 2378211.397095 0.000000 0.000000 0.000000 0.000000
-530366.614571 -30738.371501 0.000000 -30738.371501 530366.614571 0.000000 0.000000 0.000000 0.000000
1568465.755733 -1438898.964781 0.000000 -1438898.964781 -1568465.755733 0.000000 0.000000 0.000000 0.000000
-366776.444637 372177.474792 0.000000 372177.474792 366776.444637 0.000000 0.000000 0.000000 0.000000
-370729.144226 -16704.272767 0.000000 -16704.272767 370729.144226 0.000000 0.000000 0.000000 0.000000
-247882.410415 -62264.264384 0.000000 -62264.264384 247882.410415 0.000000 0.000000 0.000000 0.000000
550729.113154 3157073.039087 0.000000 3157073.039087 -550729.113154 0.000000 0.000000 0.000000 0.000000
-719502.572766 -1020751.504226 0.000000 -1020751.504226 719502.572766 0.000000 0.000000 0.000000 0.000000
-1656598.088568 577300.884924 0.000000 577300.884924 1656598.088568 0.000000 0.000000 0.000000 0.000000
-1348817.362129 1476510.823839 0.000000 1476510.823839 1348817.362129 0.000000 0.000000 0.000000 0.000000
1327265.003541 -433721.694908 0.000000 -433721.694908 -1327265.003541 0.000000 0.000000 0.000000 0.000000
-123432.060467 -442245.774424 0.000000 -442245.774424 123432.060467 0.000000 0.000000 0.000000 0.000000
164717.193763 134023.548963 0.000000 134023.548963 -164717.193763 0.000000 0.000000 0.000000 0.000000
-1278819.696178 -960478.219344 0.000000 -960478.219344 1278819.696178 0.000000 0.000000 0.000000 0.000000
207431.740662 2433985.429306 0.000000 2433985.429306 -207431.740662 0.000000 0.000000 0.000000 0.000000
-151760.031090 -1817951.760964 0.000000 -1817951.760964 151760.031090 0.000000 0.000000 0.000000 0.000000
-1310826.261050 2216236.286686 0.000000 2216236.286686 1310826.261050 0.000000 0.000000 0.000000 0.000000
606440.128489 -687038.273120 0.000000 -687038.273120 -606440.128489 0.000000 0.000000 0.000000 0.000000
64012.385683 -1448099.778541 0.000000 -1448099.778541 -64012.385683 0.000000 0.000000 0.000000 0.000000
-408229.123799 -64931.569889 0.000000 -64931.569889 408229.123799 0.000000 0.000000 0.000000 0.000000
1075016.060304 -3879977.344837 0.000000 -3879977.344837 -1075016.060304 0.000000 0.000000 0.000000 0.000000
882277.258492 398995.814409 0.000000 398995.814409 -882277.258492 0.000000 0.000000 0.000000 0.000000
-1435859.698051 -528449.216758 0.000000 -528449.216758 1435859.698051 0.000000 0.000000 0.000000 0.000000
-754834.487398 1145144.408656 0.000000 1145144.408656 754834.487398 0.000000 0.000000 0.000000 0.000000
528308.669042 -275713.541055 0.000000 -275713.541055 -528308.669042 0.000000 0.000000 0.000000 0.000000
-2057766.210796 -4678558.798522 0.000000 -4678558.798522 2057766.210796 0.000000 0.000000 0.000000 0.000000
1379397.472948 478419.848923 0.000000 478419.848923 -1379397.472948 0.000000 0.000000 0.000000 0.000000
-386692.342032 124325.283609 0.000000 124325.283609 386692.342032 0.000000 0.000000 0.000000 0.000000
-2100644.606724 1275439.251749 0.000000 1275439.251749 2100644.606724 0.000000 0.000000 0.000000 0.000000
-7024538.598943 5188819.550095 0.000000 5188819.550095 7024538.598943 0.000000 0.000000 0.000000 0.000000
2742818.029066 -640792.427570 0.000000 -640792.427570 -2742818.029066 0.000000 0.000000 0.000000 0.000000
-1360096.921971 289054.888289 0.000000 289054.888289 1360096.921971 0.000000 0.000000 0.000000 0.000000
259160.305651 294106.837738 0.000000 294106.837738 -259160.305651 0.000000 0.000000 0.000000 0.000000
-296507.161136 -2157436.618500 0.000000 -2157436.618500 296507.161136 0.000000 0.000000 0.000000 0.000000
-3687356.222953 -3002205.482996 0.000000 -3002205.482996 3687356.222953 0.000000 0.000000 0.000000 0.000000
-652057.097128 241319.560088 0.000000 241319.560088 652057.097128 0.000000 0.000000 0.000000 0.000000
-321562.449149 660399.991489 0.000000 660399.991489 321562.449149 0.000000 0.000000 0.000000 0.000000
896880.870941 958058.860951 0.000000 958058.860951 -896880.870941 0.000000 0.000000 0.000000 0.000000
-1964302.409991 2651239.634393 0.000000 2651239.634393 1964302.409991 0.000000 0.000000 0.000000 0.000000
-573304.624820 -539933.901028 0.000000 -539933.901028 573304.624820 0.000000 0.000000 0.000000 0.000000
-947640.289003 632569.778330 0.000000 632569.778330 947640.289003 0.000000 0.000000 0.000000 0.000000
1368497.537404 1568501.086484 0.000000 1568501.086484 -1368497.537404 0.000000 0.000000 0.000000 0.000000
119864.753559 -509359.202575 0.000000 -509359.202575 -119864.753559 0.000000 0.000000 0.000000 0.000000
587330.741704 -2800096.081383 0.000000 -2800096.081383 -587330.741704 0.000000 0.000000 0.000000 0.000000
-980600.999562 1184139.592565 0.000000 1184139.592565 980600.999562 0.000000 0.000000 0.000000 0.000000
-1183817.952024 865551.806343 0.000000 865551.806343 1183817.952024 0.000000 0.000000 0.000000 0.000000
-911530.363132 502920.670146 0.000000 502920.670146 911530.363132 0.000000 0.000000 0.000000 0.000000
-41206.047998 -343811.558956 0.000000 -343811.558956 41206.047998 0.000000 0.000000 0.000000 0.000000
-827149.919608 -21044.632273 0.000000 -21044.632273 827149.919608 0.000000 0.000000 0.000000 0.000000
-1680701.135266 -3960351.696875 0.000000 -3960351.696875 1680701.135266 0.000000 0.000000 0.000000 0.000000
-248892.648642 243785.601109 0.000000 243785.601109 248892.648642 0.000000 0.000000 0.000000 0.000000
880712.228267 -511493.778786 0.000000 -511493.778786 -880712.228267 0.000000 0.000000 0.000000 0.000000
-361638.966424 -1122471.832904 0.000000 -1122471.832904 361638.966424 0.000000 0.000000 0.000000 0.000000
-276062.117985 -1071289.937379 0.000000 -1071289.937379 276062.117985 0.000000 0.000000 0.000000 0.000000
-1128955.179646 212694.456305 0.000000 212694.456305 1128955.179646 0.000000 0.000000 0.000000 0.000000
-1644327.900590 1224492.488845 0.000000 1224492.488845 1644327.900590 0.000000 0.000000 0.000000 0.000000
-493746.600573 39412.383166 0.000000 39412.383166 493746.600573 0.000000 0.000000 0.000000 0.000000
-454521.357855 -1834949.359015 0.000000 -1834949.359015 454521.357855 0.000000 0.000000 0.000000 0.000000
-2838770.942372 -1717713.000794 0.000000 -1717713.000794 2838770.942372 0.000000 0.000000 0.000000 0.000000
-3480438.417520 -5194934.818723 0.000000 -5194934.818723 3480438.417520 0.000000 0.000000 0.000000 0.000000
-18635.522333 -963328.084763 0.000000 -963328.084763 18635.522333 0.000000 0.000000 0.000000 0.000000
-820034.743444 -199791.474153 0.000000 -199791.474153 820034.743444 0.000000 0.000000 0.000000 0.000000
-1018898.351049 -5610901.086640 0.000000 -5610901.086640 1018898.351049 0.000000 0.000000 0.000000 0.000000
174064.234421 -1755727.583892 0.000000 -1755727.583892 -174064.234421 0.000000 0.000000 0.000000 0.000000
-1873621.622734 -1897256.754162 0.000000 -1897256.754162 1873621.622734 0.000000 0.000000 0.000000 0.000000
46752.378598 -533996.855869 0.000000 -533996.855869 -46752.378598 0.000000 0.000000 0.000000 0.000000
-595968.926605 -86942.112438 0.000000 -86942.112438 595968.926605 0.000000 0.000000 0.000000 0.000000
-623456.994101 -14912.246301 0.000000 -14912.246301 623456.994101 0.000000 0.000000 0.000000 0.000000
-531776.961345 -12951.639169 0.000000 -12951.639169 531776.961345 0.000000 0.000000 0.000000 0.000000
-2021481.776260 1084251.416630 0.000000 1084251.416630 2021481.776260 0.000000 0.000000 0.000000 0.000000
-3152.971848 3240723.319503 0.000000 3240723.319503 3152.971848 0.000000 0.000000 0.000000 0.000000
430328.118352 52510.295411 0.000000 52510.295411 -430328.118352 0.000000 0.000000 0.000000 0.000000
-460034.826086 1407340.834297 0.000000 1407340.834297 460034.826086 0.000000 0.000000 0.000000 0.000000
-347788.408720 2158558.792682 0.000000 2158558.792682 347788.408720 0.000000 0.000000 0.000000 0.000000
-256117.151716 2263892.388252 0.000000 2263892.388252 256117.151716 0.000000 0.000000 0.000000 0.000000
-1558303.445914 1627640.451997 0.000000 1627640.451997 1558303.445914 0.000000 0.000000 0.000000 0.000000
109278.382024 -1005782.228108 0.000000 -1005782.228108 -109278.382024 0.000000 0.000000 0.000000 0.000000
-649232.854646 23045.865008 0.000000 23045.865008 649232.854646 0.000000 0.000000 0.000000 0.000000
-741777.559322 -135976.739095 0.000000 -135976.739095 741777.559322 0.000000 0.000000 0.000000 0.000000
-230764.679432 210630.466181 0.000000 210630.466181 230764.679432 0.000000 0.000000 0.000000 0.000000
-1114798.366634 -836799.530181 0.000000 -836799.530181 1114798.366634 0.000000 0.000000 0.000000 0.000000
-34478.400272 61144.162103 0.000000 61144.162103 34478.400272 0.000000 0.000000 0.000000 0.000000
506827.885421 654802.126142 0.000000 654802.126142 -506827.885421 0.000000 0.000000 0.000000 0.000000
69606.189470 -59894.570074 0.000000 -59894.570074 -69606.189470 0.000000 0.000000 0.000000 0.000000
661240.904171 -465750.353524 0.000000 -465750.353524 -661240.904171 0.000000 0.000000 0.000000 0.000000
141394.679950 -30042.063068 0.000000 -30042.063068 -141394.679950 0.000000 0.000000 0.000000 0.000000
786542.908738 -1124175.832733 0.000000 -1124175.832733 -786542.908738 0.000000 0.000000 0.000000 0.000000
-35922.706395 -22976.250163 0.000000 -22976.250163 35922.706395 0.000000 0.000000 0.000000 0.000000
-999680.979934 -613282.362221 0.000000 -613282.362221 999680.979934 0.000000 0.000000 0.000000 0.000000
-104616.605292 -24266.503287 0.000000 -24266.503287 104616.605292 0.000000 0.000000 0.000000 0.000000
-2501376.547422 -5611544.393975 0.000000 -5611544.393975 2501376.547422 0.000000 0.000000 0.000000 0.000000
-852818.453418 3554349.438123 0.000000 3554349.438123 852818.453418 0.000000 0.000000 0.000000 0.000000
382517.841838 575199.676211 0.000000 575199.676211 -382517.841838 0.000000 0.000000 0.000000 0.000000
756362.212932 -438462.018158 0.000000 -438462.018158 -756362.212932 0.000000 0.000000 0.000000 0.000000
-960945.570980 210015.240545 0.000000 210015.240545 960945.570980 0.000000 0.000000 0.000000 0.000000
-1820240.046766 978251.543516 0.000000 978251.543516 1820240.046766 0.000000 0.000000 0.000000 0.000000
637885.655964 -1143812.285549 0.000000 -1143812.285549 -637885.655964 0.000000 0.000000 0.000000 0.000000
756469.584997 157124.951609 0.000000 157124.951609 -756469.584997 0.000000 0.000000 0.000000 0.000000
1149086.385736 1277520.106543 0.000000 1277520.106543 -1149086.385736 0.000000 0.000000 0.000000 0.000000
-1504164.872757 1380877.734070 0.000000 1380877.734070 1504164.872757 0.000000 0.000000 0.000000 0.000000
-992478.833506 -823447.491185 0.000000 -823447.491185 992478.833506 0.000000 0.000000 0.000000 0.000000
-4228843.500547 -6512695.028813 0.000000 -6512695.028813 4228843.500547 0.000000 0.000000 0.000000 0.000000
-1067394.544260 -5883400.413538 0.000000 -5883400.413538 1067394.544260 0.000000 0.000000 0.000000 0.000000
-92782.237623 568618.655578 0.000000 568618.655578 92782.237623 0.000000 0.000000 0.000000 0.000000
-9131.162869 -53867.570389 0.000000 -53867.570389 9131.162869 0.000000 0.000000 0.000000 0.000000
-3702444.782526 331805.406461 0.000000 331805.406461 3702444.782526 0.000000 0.000000 0.000000 0.000000
-105355.625741 15379.483119 0.000000 15379.483119 105355.625741 0.000000 0.000000 0.000000 0.000000
-128328.043630 765099.746260 0.000000 765099.746260 128328.043630 0.000000 0.000000 0.000000 0.000000
-509502.848526 4909310.573933 0.000000 4909310.573933 509502.848526 0.000000 0.000000 0.000000 0.000000
-441425.095137 -395516.975747 0.000000 -395516.975747 441425.095137 0.000000 0.000000 0.000000 0.000000
-1762920.353454 -2026514.401029 0.000000 -2026514.401029 1762920.353454 0.000000 0.000000 0.000000 0.000000
197658.198328 1555517.754759 0.000000 1555517.754759 -197658.198328 0.000000 0.000000 0.000000 0.000000
-1081118.887358 -1550797.760009 0.000000 -1550797.760009 1081118.887358 0.000000 0.000000 0.000000 0.000000
-359328.213946 1175265.022364 0.000000 1175265.022364 359328.213946 0.000000 0.000000 0.000000 0.000000
-772520.038533 2092842.606207 0.000000 2092842.606207 772520.038533 0.000000 0.000000 0.000000 0.000000
-1417041.238705 3874715.359966 0.000000 3874715.359966 1417041.238705 0.000000 0.000000 0.000000 0.000000
84113.083715 70392.562269 0.000000 70392.562269 -84113.083715 0.000000 0.000000 0.000000 0.000000
75110.732588 14282.790787 0.000000 14282.790787 -75110.732588 0.000000 0.000000 0.000000 0.000000
-3365593.306885 4286834.253108 0.000000 4286834.253108 3365593.306885 0.000000 0.000000 0.000000 0.000000
-247624.644528 2607114.267490 0.000000 2607114.267490 247624.644528 0.000000 0.000000 0.000000 0.000000
-106328.689324 -34481.951017 0.000000 -34481.951017 106328.689324 0.000000 0.000000 0.000000 0.000000
-414475.862569 -1020986.852694 0.000000 -1020986.852694 414475.862569 0.000000 0.000000 0.000000 0.000000
-1491509.954836 1722139.882656 0.000000 1722139.882656 1491509.954836 0.000000 0.000000 0.000000 0.000000
-56355.973706 12633.072715 0.000000 12633.072715 56355.973706 0.000000 0.000000 0.000000 0.000000
-1857085.508204 -1492251.375758 0.000000 -1492251.375758 1857085.508204 0.000000 0.000000 0.000000 0.000000
1383538.587147 -1065177.737482 0.000000 -1065177.737482 -1383538.587147 0.000000 0.000000 0.000000 0.000000
-25538.012711 1105727.150303 0.000000 1105727.150303 25538.012711 0.000000 0.000000 0.000000 0.000000
-883025.323569 -737007.685006 0.000000 -737007.685006 883025.323569 0.000000 0.000000 0.000000 0.000000
166980.494034 -252289.042237 0.000000 -252289.042237 -166980.494034 0.000000 0.000000 0.000000 0.000000
-119392.328573 -18868.170135 0.000000 -18868.170135 119392.328573 0.000000 0.000000 0.000000 0.000000
702704.777617 -1381773.175610 0.000000 -1381773.175610 -702704.777617 0.000000 0.000000 0.000000 0.000000
1491499.210059 -2160848.777413 0.000000 -2160848.777413 -1491499.210059 0.000000 0.000000 0.000000 0.000000
-1092051.332841 1032254.268007 0.000000 1032254.268007 1092051.332841 0.000000 0.000000 0.000000 0.000000
-2303835.718759 -1813198.661112 0.000000 -1813198.661112 2303835.718759 0.000000 0.000000 0.000000 0.000000
-398784.283856 -563279.290085 0.000000 -563279.290085 398784.283856 0.000000 0.000000 0.000000 0.000000
-603601.477163 -1221062.512398 0.000000 -1221062.512398 603601.477163 0.000000 0.000000 0.000000 0.000000
669739.803221 3526471.158917 0.000000 3526471.158917 -669739.803221 0.000000 0.000000 0.000000 0.000000
47194.454822 -363303.429159 0.000000 -363303.429159 -47194.454822 0.000000 0.000000 0.000000 0.000000
-49705.160799 -40531.490655 0.000000 -40531.490655 49705.160799 0.000000 0.000000 0.000000 0.000000
-656237.995654 -3391811.421769 0.000000 -3391811.421769 656237.995654 0.000000 0.000000 0.000000 0.000000
674203.723895 954860.179021 0.000000 954860.179021 -674203.723895 0.000000 0.000000 0.000000 0.000000
252154.553170 15051.668735 0.000000 15051.668735 -252154.553170 0.000000 0.000000 0.000000 0.000000
-97900.193358 -160938.740538 0.000000 -160938.740538 97900.193358 0.000000 0.000000 0.000000 0.000000
-876934.909352 976817.650910 0.000000 976817.650910 876934.909352 0.000000 0.000000 0.000000 0.000000
274014.808613 165833.851504 0.000000 165833.851504 -274014.808613 0.000000 0.000000 0.000000 0.000000
-881250.200505 -686458.882471 0.000000 -686458.882471 881250.200505 0.000000 0.000000 0.000000 0.000000
1103040.111198 2062926.936631 0.000000 2062926.936631 -1103040.111198 0.000000 0.000000 0.000000 0.000000
-951483.834691 -936292.296954 0.000000 -936292.296954 951483.834691 0.000000 0.000000 0.000000 0.000000
-2664459.258716 760644.965894 0.000000 760644.965894 2664459.258716 0.000000 0.000000 0.000000 0.000000
719636.168177 -3434560.429283 0.000000 -3434560.429283 -719636.168177 0.000000 0.000000 0.000000 0.000000
-1063992.098145 1798005.428107 0.000000 1798005.428107 1063992.098145 0.000000 0.000000 0.000000 0.000000
-692130.565446 -44063.286065 0.000000 -44063.286065 692130.565446 0.000000 0.000000 0.000000 0.000000
-61768.076680 16481.454517 0.000000 16481.454517 61768.076680 0.000000 0.000000 0.000000 0.000000
-1410061.096878 -499236.440549 0.000000 -499236.440549 1410061.096878 0.000000 0.000000 0.000000 0.000000
-1130047.629198 38960.802863 0.000000 38960.802863 1130047.629198 0.000000 0.000000 0.000000 0.000000
-202928.686662 -250904.018880 0.000000 -250904.018880 202928.686662 0.000000 0.000000 0.000000 0.000000
-1470231.232372 -594339.922845 0.000000 -594339.922845 1470231.232372 0.000000 0.000000 0.000000 0.000000
5691.304799 -86336.108940 0.000000 -86336.108940 -5691.304799 0.000000 0.000000 0.000000 0.000000
-427014.442975 -711291.536957 0.000000 -711291.536957 427014.442975 0.000000 0.000000 0.000000 0.000000
-469544.219281 -1131057.828248 0.000000 -1131057.828248 469544.219281 0.000000 0.000000 0.000000 0.000000
155804.012361 -63645.163031 0.000000 -63645.163031 -155804.012361 0.000000 0.000000 0.000000 0.000000
560201.053982 -485637.351245 0.000000 -485637.351245 -560201.053982 0.000000 0.000000 0.000000 0.000000
-828976.597453 66375.328486 0.000000 66375.328486 828976.597453 0.000000 0.000000 0.000000 0.000000
3149078.780012 1386541.627412 0.000000 1386541.627412 -3149078.780012 0.000000 0.000000 0.000000 0.000000
-253747.821667 663471.690631 0.000000 663471.690631 253747.821667 0.000000 0.000000 0.000000 0.000000
-5699598.939859 -1734211.379125 0.000000 -1734211.379125 5699598.939859 0.000000 0.000000 0.000000 0.000000
-109380.143906 -20839.628351 0.000000 -20839.628351 109380.143906 0.000000 0.000000 0.000000 0.000000
-710157.332155 -4241139.660579 0.000000 -4241139.660579 710157.332155 0.000000 0.000000 0.000000 0.000000
-129904.645179 -58186.949628 0.000000 -58186.949628 129904.645179 0.000000 0.000000 0.000000 0.000000
-102666.075802 275186.740044 0.000000 275186.740044 102666.075802 0.000000 0.000000 0.000000 0.000000
132968.305707 -21455.358303 0.000000 -21455.358303 -132968.305707 0.000000 0.000000 0.000000 0.000000
-1558840.516109 1151531.827501 0.000000 1151531.827501 1558840.516109 0.000000 0.000000 0.000000 0.000000
-253426.178105 1756145.400336 0.000000 1756145.400336 253426.178105 0.000000 0.000000 0.000000 0.000000
2455631.435129 769741.465813 0.000000 769741.465813 -2455631.435129 0.000000 0.000000 0.000000 0.000000
-3594246.791588 2727373.684938 0.000000 2727373.684938 3594246.791588 0.000000 0.000000 0.000000 0.000000
-803463.805945 2596199.186591 0.000000 2596199.186591 803463.805945 0.000000 0.000000 0.000000 0.000000
-194714.425167 63008.192521 0.000000 63008.192521 194714.425167 0.000000 0.000000 0.000000 0.000000
2899117.257562 -2871767.902185 0.000000 -2871767.902185 -2899117.257562 0.000000 0.000000 0.000000 0.000000
411810.428256 -171859.960640 0.000000 -171859.960640 -411810.428256 0.000000 0.000000 0.000000 0.000000
600127.860462 -175863.145422 0.000000 -175863.145422 -600127.860462 0.000000 0.000000 0.000000 0.000000
101534.932588 36461.895405 0.000000 36461.895405 -101534.932588 0.000000 0.000000 0.000000 0.000000

VECTORS force float
0.000000 -6568023041.105062 0.000000	0.000000 -6568023041.105062 0.000000	0.000000 -6568023041.105062 0.000000	0.000000 -6568023041.105062 0.000000	0.000000 -6568023041.105062 0.000000	0.000000 -6568023041.105062 0.000000	0.000000 -6568023041.105062 0.000000	0.000000 -6568023041.105062 0.000000	0.000000 -6568023041.105062 0.000000	0.000000 -6568023041.105062 0.000000	0.000000 -6568023041.105062 0.000000	0.000000 -6568023041.105062 0.000000	0.000000 -6568023041.105062 0.000000	0.000000 -6568023041.105062 0.000000	0.000000 -6568023041.105062 0.000000	0.000000 -6568023041.105062 0.000000	0.000000 -6568023041.105062 0.000000	0.000000 -6568023041.105062 0.000000	0.000000 -6568023041.105062 0.000000	0.000000 -6568023041.105062 0.000000	0.000000 -6568023041.105062 0.000000	0.000000 -6568023041.105062 0.000000	0.000000 -6568023041.105062 0.000000	0.000000 -6568023041.105062 0.000000	0.000000 -6568023041.105062 0.000000	0.000000 -6568023041.105062 0.000000	0.000000 -6568023041.105062 0.000000	0.000000 -6568023041.105062 0.000000	0.000000 -6568023041.105062 0.000000	0.000000 -6568023041.105062 0.000000	0.000000 -6568023041.105062 0.000000	0.000000 -6568023041.105062 0.000000	0.000000 -6568023041.105062 0.000000	0.000000 -6568023041.105062 0.000000	0.000000 -6568023041.105062 0.000000	0.000000 -6568023041.105062 0.000000	0.000000 -6568023041.105062 0.000000	0.000000 -6568023041.105062 0.000000	0.000000 -6568023041.105062 0.000000	0.000000 -6568023041.105062 0.000000	0.000000 -6568023041.105062 0.000000	0.000000 -6568023041.105062 0.000000	0.000000 -6568023041.105062 0.000000	0.000000 -6568023041.105062 0.000000	0.000000 -6568023041.105062 0.000000	0.000000 -6568023041.105062 0.000000	0.000000 -6568023041.105062 0.000000	0.000000 -6568023041.105062 0.000000	0.000000 -6568023041.105062 0.000000	0.000000 -6568023041.105062 0.000000	0.000000 -6568023041.105062 0.000000	0.000000 -6568023041.105062 0.000000	0.000000 -6568023041.105062 0.000000	0.000000 -6568023041.105062 0.000000	0.000000 -6568023041.105062 0.000000	0.000000 -6568023041.105062 0.000000	0.000000 -6568023041.105062 0.000000	0.000000 -6568023041.105062 0.000000	0.000000 -6568023041.105062 0.000000	0.000000 -6568023041.105062 0.000000	0.000000 -6568023041.105062 0.000000	0.000000 -6568023041.105062 0.000000	0.000000 -6568023041.105062 0.000000	0.000000 -6568023041.105062 0.000000	0.000000 -6568023041.105062 0.000000	0.000000 -6568023041.105062 0.000000	0.000000 -6568023041.105062 0.000000	0.000000 -6568023041.105062 0.000000	0.000000 -6568023041.105062 0.000000	0.000000 -6568023041.105062 0.000000	0.000000 -6568023041.105062 0.000000	0.000000 -6568023041.105062 0.000000	0.000000 -6568023041.105062 0.000000	0.000000 -6568023041.105062 0.000000	0.000000 -6568023041.105062 0.000000	0.000000 -6568023041.105062 0.000000	0.000000 -6568023041.105062 0.000000	0.000000 -6568023041.105062 0.000000	0.000000 -6568023041.105062 0.000000	0.000000 -6568023041.105062 0.000000	0.000000 -6568023041.105062 0.000000	0.000000 -6568023041.105062 0.000000	0.000000 -6568023041.105062 0.000000	0.000000 -6568023041.105062 0.000000	0.000000 -6568023041.105062 0.000000	0.000000 -6568023041.105062 0.000000	0.000000 -6568023041.105062 0.000000	0.000000 -6568023041.105062 0.000000	0.000000 -6568023041.105062 0.000000	0.000000 -6568023041.105062 0.000000	-30087089243.852074 -69049231398.103867 0.000000	-2041935289.090891 -9951251016.615425 0.000000	322424847.360594 -9069566971.545216 0.000000	-20935599757.245358 -50663762110.588600 0.000000	-26549525425.382130 -98266884408.935242 0.000000	2363738707.904177 -21091719282.323891 0.000000	-9640304392.778927 -96294953619.772247 0.000000	-14825852513.106689 -53682268753.423676 0.000000	-3429584806.439563 -9430643924.825783 0.000000	-22589118278.926735 -85305484911.028351 0.000000	-58410622520.358643 -85233703314.349167 0.000000	-48819547711.302689 -130289509084.470139 0.000000	31719341112.594170 -73920178483.508026 0.000000	-128315472431.772949 -179592023989.474518 0.000000	10360763242.648790 -30408882695.150356 0.000000	-75500199283.683563 -131469263204.949524 0.000000	-59710122901.600441 -144776780897.555237 0.000000	0.000000 -6568023041.105062 0.000000	-4554109219.586523 -58277394877.619102 0.000000	-33525481577.574585 -177166172079.280762 0.000000	0.000000 -6568023041.105062 0.000000	-52838047.696732 -157153297083.394531 0.000000	-62258943979.972351 -334755760376.646362 0.000000	2569032182.046415 -11154622512.963236 0.000000	-36555151972.056816 -59371620966.967819 0.000000	9019236612.513115 -214310663473.176147 0.000000	-75691328916.975174 -269956549816.663147 0.000000	-70671365659.699066 -189867931406.945190 0.000000	-59431719949.214821 -195275088668.757904 0.000000	-31958768227.844547 -36292159337.646339 0.000000	-22222138066.601402 -88323185478.491440 0.000000	0.000000 -6568023041.105062 0.000000	3138947358.534945 -126487226499.331055 0.000000	-82895789220.715698 -220377574029.838867 0.000000	-45755991255.532852 -373110592232.433472 0.000000	16554565151.463116 -21053375793.289001 0.000000	1827854038.085739 -7953275330.366379 0.000000	-104081188982.058746 -393480328210.119080 0.000000	78727140627.157516 -234921127005.387268 0.000000	-30089083195.357338 -58536947150.158302 0.000000	20496001064.157921 -140016239256.052124 0.000000	-1374922196.873695 -161522412984.765808 0.000000	-27481000136.946106 -359030864060.136230 0.000000	44169616185.862320 -171926126454.957733 0.000000	-76560568895.066971 -174544392913.524323 0.000000	33600198771.679409 -92696829519.306564 0.000000	-27021003437.448669 -34245655352.713539 0.000000	26167523100.728027 -233602330960.819336 0.000000	48718886754.242004 -161246103399.241821 0.000000	79922560073.379120 -237284287922.454437 0.000000	-67985705067.311623 -85320364044.801392 0.000000	41012419760.138054 -136476445924.273239 0.000000	-109370594451.146393 -328901890632.180847 0.000000	52196678699.103455 -153898893471.897125 0.000000	-71500373284.055969 -60935099179.973488 0.000000	274493079387.095795 -255360105598.173187 0.000000	-14257319334.103249 -137091061426.866638 0.000000	-3925849140.407420 -11800263959.578873 0.000000	161465641858.311584 -323271359299.157837 0.000000	-7711614198.378717 -232795807249.749512 0.000000	-17027410045.488173 -86732427486.567093 0.000000	-41554925585.164597 -219291621079.677307 0.000000	-24603324732.728844 -94484734490.023743 0.000000	0.000000 -6568023041.105062 0.000000	23073703559.967697 -47460639665.171509 0.000000	173117704068.059723 -215616019113.130524 0.000000	-26930367982.058182 -200922352323.124695 0.000000	18659104104.547394 -54806754199.085289 0.000000	84996096613.953186 -216855738356.494537 0.000000	21880801997.792004 -153795881526.689545 0.000000	114242449159.981934 -165637685398.093964 0.000000	20689814425.691086 -83699182018.145050 0.000000	-11511035369.972420 -78262176595.751511 0.000000	20046262994.462749 -139883356737.490448 0.000000	25553175213.235569 -26170462752.876076 0.000000	12735506769.826359 -63622567956.400772 0.000000	-4629023819.671547 -166173184223.498322 0.000000	0.000000 -6568023041.105062 0.000000	83865979719.509155 -144435582151.307556 0.000000	15304328264.635052 -87930640690.020538 0.000000	0.000000 -6568023041.105062 0.000000	57584706470.877258 -81998471066.682312 0.000000	23080789372.792381 -60937037916.527397 0.000000	-1276493255.302788 -14765528322.433781 0.000000	36440460431.065201 -53631543437.642303 0.000000	17064707069.017307 -27935657394.783642 0.000000	8203641759.967948 -24028743238.446190 0.000000	0.000000 -6568023041.105062 0.000000	0.000000 -6568023041.105062 0.000000	0.000000 -6568023041.105062 0.000000	0.000000 -6568023041.105062 0.000000	0.000000 -6568023041.105062 0.000000	0.000000 -6568023041.105062 0.000000	0.000000 -6568023041.105062 0.000000	0.000000 -6568023041.105062 0.000000	0.000000 -6568023041.105062 0.000000	0.000000 -6568023041.105062 0.000000	0.000000 -6568023041.105062 0.000000	0.000000 -6568023041.105062 0.000000	0.000000 -6568023041.105062 0.000000	0.000000 -6568023041.105062 0.000000	0.000000 -6568023041.105062 0.000000	0.000000 -6568023041.105062 0.000000	0.000000 -6568023041.105062 0.000000	0.000000 -6568023041.105062 0.000000	0.000000 -6568023041.105062 0.000000	0.000000 -6568023041.105062 0.000000	0.000000 -6568023041.105062 0.000000	0.000000 -6568023041.105062 0.000000	0.000000 -6568023041.105062 0.000000	0.000000 -6568023041.105062 0.000000	0.000000 -6568023041.105062 0.000000	0.000000 -6568023041.105062 0.000000	0.000000 -6568023041.105062 0.000000	0.000000 -6568023041.105062 0.000000	0.000000 -6568023041.105062 0.000000	0.000000 -6568023041.105062 0.000000	0.000000 -6568023041.105062 0.000000	0.000000 -6568023041.105062 0.000000	0.000000 -6568023041.105062 0.000000	0.000000 -6568023041.105062 0.000000	0.000000 -6568023041.105062 0.000000	0.000000 -6568023041.105062 0.000000	0.000000 -6568023041.105062 0.000000	0.000000 -6568023041.105062 0.000000	0.000000 -6568023041.105062 0.000000	0.000000 -6568023041.105062 0.000000	0.000000 -6568023041.105062 0.000000	0.000000 -6568023041.105062 0.000000	0.000000 -6568023041.105062 0.000000	0.000000 -6568023041.105062 0.000000	0.000000 -6568023041.105062 0.000000	30384414.047176 -43199081.383484 0.000000	-6826943.873665 41693392.773802 0.000000	-3524466.331274 -25692424.195770 0.000000	-60343571.594788 33767496.642204 0.000000	-50445538.820618 -31475199.574677 0.000000	-9898748.336861 18253933.758301 0.000000	-10296540.861359 18969567.035240 0.000000	12746539.429565 -4459909.760784 0.000000	6509758.733646 33971146.178061 0.000000	-13385187.138657 -3956691.030268 0.000000	-67937189.688156 21350132.410049 0.000000	-27858896.723419 64116199.014862 0.000000	32571270.606331 -10288820.384399 0.000000	-54132288.497833 -68249089.300224 0.000000	14168195.038635 36424083.040619 0.000000	-15534554.281027 32291955.052021 0.000000	17653213.260513 37652346.943573 0.000000	-37832753.687943 -47668662.002060 0.000000	-4074752.374901 -13055521.704163 0.000000	47975492.198303 43596977.403133 0.000000	-24132232.401505 -26044619.290176 0.000000	-35701593.710060 -16076057.388920 0.000000	4505414.540085 3865114.376396 0.000000	17587813.501328 -15276020.098816 0.000000	19347515.621216 21941608.148575 0.000000	-4420003.951553 415176.017029 0.000000	-18593333.154861 2894196.344566 0.000000	40248862.596436 -44954210.626984 0.000000	4734311.077454 23791444.219604 0.000000	46218583.083038 40631136.161224 0.000000	-10379676.184868 -40053577.389044 0.000000	15943681.177492 -19988020.214142 0.000000	-1600679.653099 27210277.390362 0.000000	-71899087.549736 -48255178.814423 0.000000	-33943456.890381 -1088562.234421 0.000000	43371971.928085 -43385616.939606 0.000000	106185361.785294 -45893179.968460 0.000000	25401406.000710 -32579638.325836 0.000000	-10641598.732948 -5605740.902370 0.000000	-10503943.087584 2292069.743912 0.000000	21403806.795500 30978146.298759 0.000000	-26937717.534454 -43732753.734833 0.000000	49105433.646744 -38179016.622334 0.000000	-61524988.889435 -25100556.562088 0.000000	-38294018.992279 -29815567.811551 0.000000	8466019.467316 2582249.124031 0.000000	15966257.232800 -11762675.933220 0.000000	23164806.528191 20218763.621414 0.000000	-19597538.649139 28742634.593018 0.000000	962649.176331 -1082994.758759 0.000000	20007450.913689 42523632.467228 0.000000	-57187892.785347 -83187648.935577 0.000000	38117838.227692 -29077099.678894 0.000000	78006310.825817 30659832.419460 0.000000	-20264161.915329 -17236201.533722 0.000000	1249867.197014 -5601864.401413 0.000000	49061305.399231 -8581067.265415 0.000000	32083423.322113 -44824861.159576 0.000000	-10494634.616943 -49765453.304012 0.000000	-60381664.896423 30861410.310440 0.000000	29864271.824966 -2741257.011284 0.000000	-487700.237854 -9680026.724823 0.000000	-10449860.075831 -5747879.087499 0.000000	60286466.652557 42131973.367661 0.000000	32802286.189102 -9300164.293060 0.000000	1668800.036263 8009220.728203 0.000000	-15634798.520996 -10816604.064560 0.000000	-83877149.400906 16595835.230896 0.000000	-5405025.550888 24599890.772278 0.000000	13963896.832649 -6167164.468811 0.000000	40339498.453995 40477890.182236 0.000000	-24473262.085419 -43771050.700562 0.000000	-16997061.343094 -25953852.019638 0.000000	27677603.510361 832750.637848 0.000000	-6967371.584351 -9589095.190294 0.000000	52306125.973625 15324752.545605 0.000000	5264684.109711 7095422.828552 0.000000	-8889956.057793 57132543.366188 0.000000	18104879.050964 -22372369.436554 0.000000	-2111727.406555 -33285731.659027 0.000000	3571064.058792 -4679158.925522 0.000000	24391001.533104 40572699.195515 0.000000	-18080842.496017 59709429.211609 0.000000	37336192.382477 56846913.941395 0.000000	-23046857.236633 30735680.266258 0.000000	25491338.089336 24932561.107886 0.000000	-8532712.938385 1218663.545822 0.000000	6257989.667542 16423291.818268 0.000000	3743929.953766 27587306.052094 0.000000	-49885030.076286 -18182120.204870 0.000000	-5660982.916489 7639529.169830 0.000000	23199518.559652 -4102098.513208 0.000000	-18395026.979012 44201081.983856 0.000000	56237174.098358 25097044.107231 0.000000	54254225.369751 21229571.169922 0.000000	-43353709.791641 35882605.158112 0.000000	-25094134.071192 53570760.160919 0.000000	40002106.883102 -26605580.830063 0.000000	25988666.922882 -15030319.296928 0.000000	11975687.469688 -10813181.212749 0.000000	24436324.579620 -10097332697.960712 0.000000	-21197867.696045 -10061193966.773529 0.000000	-12430546.760262 -10077596632.738144 0.000000	-5755262.295807 -10054204455.862282 0.000000	-272082.423927 -10055945222.653503 0.000000	-20208645.376762 -10025449368.349400 0.000000	-4779125.164589 -10058063645.226440 0.000000	-43473056.209198 -10021019744.916611 0.000000	-5154918.678513 -10061746603.017376 0.000000	4510869.096441 -10053717297.754026 0.000000	4551099.864986 -10057059481.163345 0.000000	-3343656.437515 -10056403340.024904 0.000000	11759311.395340 -10029612972.385132 0.000000	-9191333.128063 -10053770003.057411 0.000000	-10000.000000 -10056935687.904039 0.000000	3167436.001847 -10054822737.357864 0.000000	118903.164752 -10056902144.991789 0.000000	-8241151.981674 -10056676312.279694 0.000000	6164198.441193 -10093095614.897461 0.000000	4197964.357147 -10050517070.519699 0.000000	27806631.196320 -10045057255.100403 0.000000	8398358.926369 -10058624638.057871 0.000000	-34150226.832672 -10038706671.745209 0.000000	-6027330.000338 -10055219290.351665 0.000000	21307261.939262 -10071077340.089916 0.000000	-4643180.264099 -10063871301.697971 0.000000	15176789.857422 -10070251147.153778 0.000000	-25386839.210802 -9976669048.904352 0.000000	5718504.895241 -10058227989.496513 0.000000	-1653686.174015 -10048591859.658569 0.000000	-1864910.062855 -10055379456.362488 0.000000	24475945.132843 -10018645435.809746 0.000000	36487973.719559 -10022938538.775871 0.000000	111502726.471893 -10075352898.143764 0.000000	72988305.460571 -10028394540.535690 0.000000	2925323.214188 -10008214971.425097 0.000000	18848919.532944 -9998285009.678871 0.000000	30169266.198181 -10078857540.009628 0.000000	-32497689.816406 -10064720115.526520 0.000000	-3460293.377480 -10063090369.790710 0.000000	6101002.064102 -10053640272.117340 0.000000	-10439586.355377 -10064653733.134918 0.000000	-4299932.141661 -10063656804.798704 0.000000	0.000019 -10057665423.635700 0.000000	3698262.694939 -10064761579.631073 0.000000	24463198.915054 -10052051896.879807 0.000000	-3803677.740829 -10068912544.931702 0.000000	-48955299.768250 -10010352676.159531 0.000000	2521283.487980 -10059350742.736313 0.000000	-51699438.122314 -10064231357.660690 0.000000	8190124.373772 -10060125062.698273 0.000000	-1761736.592987 -10069379231.326294 0.000000	-4979794.527367 -10059016430.013489 0.000000	-9715663.320908 -10074399864.341021 0.000000	-41807187.946411 -10072125661.442017 0.000000	-48424.029270 -10057244744.364004 0.000000	71340051.159494 -10006077484.213135 0.000000	6297270.416115 -10054483382.133268 0.000000	23140341.972305 -10011448158.077484 0.000000	-121043.103821 -10063211025.847652 0.000000	-2461707.195656 -10060229410.112408 0.000000	-25072283.543449 -10030483380.742233 0.000000	-45713185.483749 -10069465479.386093 0.000000	5966393.297829 -10064199711.197758 0.000000	6508689.311642 -10052296481.160473 0.000000	-1430018.034790 -10055516656.586433 0.000000	28590676.627808 -10026666736.783554 0.000000	-4241174.638908 -10057900342.979012 0.000000	-2733896.920937 -10078692865.341904 0.000000	-1904232.604485 -10050681846.048531 0.000000	50825165.921860 -10067654550.885986 0.000000	807646.191390 -10057549441.627275 0.000000	-139675.182031 -10057404429.511854 0.000000	-688034.862810 -10048475908.643280 0.000000	6921482.136662 -10053126553.076408 0.000000	-29880097.116829 -10082643488.858437 0.000000	16219811.319962 -10051586083.986359 0.000000	-22989760.264679 -10060142636.508892 0.000000	-52575086.711792 -10028808109.541931 0.000000	-39551951.337753 -10042843548.894653 0.000000	-7622065.161060 -10058476656.848314 0.000000	-21208142.965885 -10032107360.960602 0.000000	2294726.724693 -10061330632.890411 0.000000	3365167.993744 -10058736335.852833 0.000000	-4048395.570000 -10059534692.513653 0.000000	1131813.043472 -10057827060.064392 0.000000	-76344167.681213 -10091719691.660248 0.000000	-200967.112810 -10057046321.275394 0.000000	16499373.399063 -10040386344.703613 0.000000	-15798950.087439 -10120206405.735992 0.000000	-11174701.389992 -10075072176.011246 0.000000	-149261.868767 -10050100223.050163 0.000000	13145725.158203 -10075884137.840118 0.000000	-52488222.426895 -10069466703.626434 0.000000	-33531420.014496 -10097323675.859634 0.000000	33071172.154381 -10091112659.273315 0.000000	-2216472.279287 -10052416937.196487 0.000000	-4019465.375397 -10058197183.991283 0.000000	12601841.090012 -10082402271.885529 0.000000	27547381.328262 -10020697626.858215 0.000000	10578830.649063 -3780880.153484 0.000000	5380076.456100 -35161286.940903 0.000000	1690081.801989 -1929740.155322 0.000000	-13561765.428741 -3883862.244827 0.000000	-13307422.753870 3776849.113546 0.000000	-3558525.368294 -454477.526398 0.000000	-19946667.529663 23689997.087099 0.000000	6563988.453939 -6532006.863220 0.000000	5533789.111574 -4787790.645599 0.000000	-6697483.176781 -23322877.058559 0.000000	10211521.523510 -18595045.826263 0.000000	3632870.668575 148108.569054 0.000000	11149700.019249 -30729239.297806 0.000000	-2692493.766220 7282889.622986 0.000000	7499247.868987 -27727735.919874 0.000000	26210000.463562 140549.796829 0.000000	12306339.021019 77242137.329788 0.000000	-51387808.920929 -49402686.761658 0.000000	10678126.844482 12536424.784454 0.000000	59635653.539940 -10877420.626768 0.000000	12458535.292515 -6728847.829681 0.000000	-95796961.775940 -16836688.528503 0.000000	-18890344.064568 -65349169.794470 0.000000	-2748673.102949 4868827.479777 0.000000	-5095129.433823 1374507.720795 0.000000	-7879180.739597 -1896257.432617 0.000000	-32450935.130428 2854003.719517 0.000000	-4180818.660316 -2719003.882523 0.000000	9386900.552624 -34979811.163326 0.000000	-25956866.230820 -8856231.252459 0.000000	-986630.732338 1031629.783859 0.000000	-2007468.267177 -5952824.087059 0.000000	835015.960245 4576368.296950 0.000000	-6227176.824406 -1445937.354012 0.000000	26614410.703903 42704953.772491 0.000000	5568382.105795 35543732.739311 0.000000	27362282.813049 -5598562.053528 0.000000	-4029819.457054 3837047.025826 0.000000	-1542090.484222 -19339014.238037 0.000000	-35292741.574779 16118972.339050 0.000000	-28857240.855058 -11504001.860132 0.000000	-7772332.981960 -327004.353981 0.000000	5075846.895943 -49254048.907516 0.000000	5421267.270405 3892831.604858 0.000000	20760931.720406 39224576.460201 0.000000	-16878918.916504 -40466506.027649 0.000000	-2023918.045076 -1527968.897537 0.000000	19822493.726318 20899166.018738 0.000000	-3466488.395988 -13469797.339483 0.000000	-2040076.109795 -5594783.849785 0.000000	-36709244.282005 47873958.531693 0.000000	2764399.656738 -29024043.595113 0.000000	-5409267.101952 -387933.289654 0.000000	40390550.883148 9791643.726115 0.000000	-19505925.371845 354541.615456 0.000000	-951699.695190 -742975.950111 0.000000	-28857128.034775 14534809.936810 0.000000	-11718760.529198 26850746.708771 0.000000	12750347.045746 60608547.951324 0.000000	-388845.719093 -1321520.834881 0.000000	35718744.401642 47055262.411072 0.000000	-167546.240973 -7569729.681297 0.000000	8350912.567614 2483694.502640 0.000000	-8929959.439117 906174.261541 0.000000	1766254.733734 382698.269577 0.000000	-49592230.071915 -12698673.283340 0.000000	38538062.771423 -2913761.905487 0.000000	-21669961.119263 -29745500.528656 0.000000	-1065350.231682 -38345785.575075 0.000000	1590323.958733 3512982.769409 0.000000	34438452.775879 18585276.610352 0.000000	-41575425.864128 -26126245.667068 0.000000	7907410.810654 34707405.835274 0.000000	6762153.816818 -4038992.555870 0.000000	-15910858.862305 -15853309.725660 0.000000	-8823124.665840 -5163300.722992 0.000000	-20315470.668978 -35187554.199600 0.000000	-28801676.661705 -51852903.177643 0.000000	3520813.093124 -159495.301826 0.000000	-28069148.537441 52874005.762611 0.000000	14948178.816116 -42761983.818939 0.000000	4476621.506516 -3719293.202217 0.000000	35805.875141 -10992215.333458 0.000000	4801780.021721 662154.407063 0.000000	31432531.173573 23477850.892414 0.000000	1441504.737518 -13224547.584290 0.000000	14987352.629177 5523178.966614 0.000000	-10043084.254303 -34143274.676399 0.000000	-5076784.555092 5573375.682915 0.000000	10692583.659290 634393.120682 0.000000	-15718556.713396 27414508.486138 0.000000	14554228.215546 -5570813.062874 0.000000	10466868.274202 -11790183.715309 0.000000	-20762432.275131 -9288232.302017 0.000000	-9568876.062357 3146272.846342 0.000000	4674109.911682 -43907858.383392 0.000000	1758482.790054 15994998.918335 0.000000	-6475236.881283 30378699.102600 0.000000	22114043.300720 43759070.179871 0.000000	-55219339.160614 -5544659.685959 0.000000	-12400902.524945 -10058856906.557686 0.000000	762399.421082 -10057385440.080305 0.000000	-38342243.776688 -10066952189.572784 0.000000	-22531256.686378 -10034200315.481756 0.000000	2103394.597195 -10054908285.775978 0.000000	-11256010.882460 -10070094039.568052 0.000000	-7059540.185424 -10055938927.696793 0.000000	-1970809.560257 -10050170445.695404 0.000000	-70861628.971809 -10108143205.314819 0.000000	-25524970.262882 -10089471940.593582 0.000000	-17064015.205475 -10029647351.167450 0.000000	-50804267.813332 -10107823906.219557 0.000000	-4712899.926689 -10057888455.901722 0.000000	1698076.721996 -10063041521.066723 0.000000	-3645631.417740 -10056662695.030228 0.000000	10909450.724606 -10051831400.155273 0.000000	-22812839.638718 -10026923927.693970 0.000000	-139733.528713 -10056879528.449711 0.000000	4624.922828 -10057827445.095623 0.000000	42967.596838 -10102572158.496490 0.000000	21969535.567268 -10041286605.742584 0.000000	-13160215.727432 -10055422005.599194 0.000000	-5303930.178316 -10057040183.776939 0.000000	258093.270020 -10056918456.908211 0.000000	79973.518226 -10057525446.933058 0.000000	5625995.805111 -10057191010.616074 0.000000	-2926019.762550 -10057345578.827652 0.000000	-5842739.358551 -10052622298.685104 0.000000	697140.194084 -10053593100.651297 0.000000	-3702882.963074 -10059561962.064899 0.000000	-1376625.221381 -10060188077.100739 0.000000	-11906101.921532 -10065390631.146156 0.000000	-49686368.366028 -10015235826.022003 0.000000	-360493.741926 -10057128271.747995 0.000000	-13285248.378387 -10021743783.185135 0.000000	-2705817.199482 -10060536153.018991 0.000000	5181945.261939 -10050566736.421585 0.000000	79394.481519 -10057016041.118021 0.000000	-222437.450265 -10057368277.199814 0.000000	41291123.327881 -10028817536.502441 0.000000	1500629.662884 -10057739996.383774 0.000000	1895799.691338 -10052623371.654079 0.000000	-48982.865044 -10035459262.774139 0.000000	877199.171020 -10059774877.381411 0.000000	-391309.507629 -10058141446.043266 0.000000	-674199.990826 -10063579446.648590 0.000000	12065920.458359 -10056383026.504341 0.000000	-14143181.482464 -10004951339.581560 0.000000	-4851190.701199 -10056320039.188553 0.000000	-9524.667122 -10056518570.233475 0.000000	964067.809761 -10046739357.663193 0.000000	-2198528.498493 -10055665354.976086 0.000000	17764023.350525 -9999353279.832642 0.000000	-3777303.580673 -10057969893.740730 0.000000	9738528.949554 -10059143904.499786 0.000000	-633881.401474 -10089302435.903870 0.000000	-12162405.839928 -10057848113.874741 0.000000	-24868.517994 -10057332821.254711 0.000000	-4580120.919273 -10032940475.126221 0.000000	4807107.373470 -10056291793.732746 0.000000	48582931.522682 -10093472620.320793 0.000000	12568302.357506 -10048772669.608690 0.000000	12273071.775337 -10055357558.952007 0.000000	5489291.727237 -10060175400.874002 0.000000	2028565.644440 -10059644814.371727 0.000000	-2928043.292458 -10059269681.940845 0.000000	-83805415.093689 -10101997270.773331 0.000000	2213403.983116 -10055076970.412390 0.000000	-2143664.282961 -10066751284.972832 0.000000	-1626514.175030 -10049380711.089109 0.000000	15566844.082060 -10059006774.663422 0.000000	-2953269.188519 -10061391978.339855 0.000000	14995679.679153 -10050935878.401262 0.000000	-1876170.502737 -10056299521.285316 0.000000	13589949.785263 -10064089624.893639 0.000000	3856658.081911 -10062608354.404287 0.000000	-1864311.540134 -10057612596.254211 0.000000	4456715.988304 -10057233750.810211 0.000000	-3840439.952244 -10060363243.536999 0.000000	1077308.536299 -10058881253.355307 0.000000	124295.470989 -10058359492.858637 0.000000	-8365927.961266 -10054573031.075516 0.000000	-612625.786471 -10057293501.492897 0.000000	-29598546.797409 -10078489846.789841 0.000000	-5956770.785244 -10057114976.279047 0.000000	1043711.494814 -10055241782.094334 0.000000	-806227.526264 -10053737057.345978 0.000000	4951027.353413 -10094145512.761230 0.000000	7244410.997627 -10087941664.389954 0.000000	63035624.393219 -9991858257.511688 0.000000	-587362.940144 -10059635657.384968 0.000000	-1333242.048840 -10057114886.640236 0.000000	-10294266.570339 -10054929366.541206 0.000000	-7816186.216558 -10127044434.189728 0.000000	-17999587.988556 -10049013782.750366 0.000000	1951321.838600 -10052307090.274876 0.000000	536471.543692 -10057430977.662128 0.000000	-426422.586914 -10060654365.288012 0.000000	149142.276627 -10060214478.513580 0.000000	5738775.548523 -10061153557.243195 0.000000	-22104617.666008 64366807.021437 0.000000	8833508.622559 144437.219299 0.000000	-1480796.131863 -5072754.107787 0.000000	12298400.759602 2358159.586220 0.000000	15887819.330864 -55311952.588581 0.000000	-561691.074582 5630691.938400 0.000000	-14398169.398058 -7472385.045250 0.000000	50574570.613319 17252231.073135 0.000000	36526385.893387 -17677442.395538 0.000000	4513030.088142 -5753552.370613 0.000000	-6682824.341103 -7507126.817498 0.000000	-3061448.356033 -1843423.945751 0.000000	-10824045.475227 1785797.233589 0.000000	-959623.545578 2935023.996567 0.000000	9393501.726591 -27040223.839104 0.000000	10624201.356495 -4008570.648830 0.000000	-1736640.463126 878463.014591 0.000000	-46026852.920067 425089.329659 0.000000	16540296.448242 -34795010.607849 0.000000	-48867514.694389 13413065.752197 0.000000	10122510.748059 2276244.014639 0.000000	-4856864.939150 870714.591690 0.000000	-12981011.083988 -4333172.173342 0.000000	6661042.764511 607713.901909 0.000000	8942947.905960 -21006274.605373 0.000000	-10787998.701965 3926422.933647 0.000000	-2241496.694183 -3143608.743057 0.000000	11923785.260483 -5746256.426559 0.000000	-13832126.876976 -9956146.731678 0.000000	-12893174.483429 -3693818.341198 0.000000	-631335.732206 -5171269.650055 0.000000	1223307.573307 2122844.521399 0.000000	-590082.803043 -3602325.935802 0.000000	-17269057.018169 59888189.857712 0.000000	4471635.170952 2326893.309796 0.000000	10512565.297236 -221398.163725 0.000000	1590224.701443 -2038212.354420 0.000000	5266176.882202 -30855505.038559 0.000000	-42237503.836184 -26101532.041206 0.000000	6979907.745445 -1305335.591013 0.000000	5203743.622131 2451600.836647 0.000000	48308276.668350 3939077.447132 0.000000	-6558289.069153 -9785006.301994 0.000000	3168376.915825 -3532987.966599 0.000000	-1059829.191023 2345201.510854 0.000000	-22028625.342491 51925115.699160 0.000000	6199355.150238 2615230.882898 0.000000	3849802.874676 -2181931.459854 0.000000	-1280768.339016 587745.947052 0.000000	14967408.526489 15764540.212795 0.000000	-1384566.288834 2686807.173006 0.000000	-4415795.757843 -633635.223708 0.000000	-1821945.335121 12482635.170769 0.000000	1241946.311203 3066670.197716 0.000000	1997893.391430 8697599.187050 0.000000	2291501.229286 4605787.675677 0.000000	-869389.031570 -5151286.588957 0.000000	-20165029.451418 30484780.616585 0.000000	603718.461612 2664374.629707 0.000000	1903080.215889 -4680891.496849 0.000000	33208099.645687 -19983578.024826 0.000000	-5275893.960361 6265125.249664 0.000000	51565989.069901 -12904470.230545 0.000000	-2678728.076721 10085813.595695 0.000000	-710944.727736 2690102.263130 0.000000	789302.088675 -1862760.358093 0.000000	1091993.737526 -3377590.299133 0.000000	3750267.405892 -609592.056262 0.000000	-17636817.142010 -21511433.788417 0.000000	235339.862129 2993688.579292 0.000000	-2969497.939960 -6223210.938629 0.000000	3670962.699318 790802.091505 0.000000	-1776272.602005 -131522.004391 0.000000	-20067387.546697 -2180249.419937 0.000000	37639642.060907 -12281667.030418 0.000000	-7952435.458216 6741424.926098 0.000000	-1928158.060364 1293231.295080 0.000000	-1833788.582718 -22017603.861755 0.000000	953006.021233 6898624.769523 0.000000	7133081.300148 114288.960938 0.000000	11320289.777016 9670764.221420 0.000000	19225283.414173 -13812076.716427 0.000000	-1762522.727272 7190894.689865 0.000000	-45576275184.313065 61693239592.647614 0.000000	28487861.162247 26540093.301590 0.000000	-4002684.056931 -5115972.801907 0.000000	39673798.463377 48826134.368027 0.000000	-3254426.563110 -2286704.362738 0.000000	-2351578.589603 -3962637.834633 0.000000	4226948.345634 807258.180317 0.000000	4831719.206108 6044526.137056 0.000000	1026972.208177 5511549.925920 0.000000	-25428521.235733 -35427730.006958 0.000000	381689.982084 388645.931245 0.000000	-543035.886505 61747471.912277 0.000000	11786098.798653 11824988.540766 0.000000	49415485.229622 23976892.723526 0.000000	12494709.887009 1707630.947861 0.000000	-3275283.356384 -797229.741810 0.000000	14841496.919895 -26424150.548582 0.000000	-1713285.872490 -10056972283.075966 0.000000	-860151.972828 -10057651657.584217 0.000000	7905745.550201 -10066328880.796371 0.000000	7130793.217495 -10060003438.477425 0.000000	-7349938.658310 -10051267341.096979 0.000000	-2313020.520407 -10060424097.171421 0.000000	6204271.913061 -10054136557.775984 0.000000	-1896508.338257 -10054788353.379038 0.000000	995829.809305 -10059547594.873026 0.000000	320655.428094 -10057051407.727232 0.000000	-30586040.074600 -10095425898.580566 0.000000	46353870.815033 -10039126564.296370 0.000000	-7358485.280766 -10057043028.234413 0.000000	-36340531.161118 -10046767928.074661 0.000000	9769742.513045 -10058318195.085587 0.000000	600339.544952 -10056149575.458382 0.000000	-7087911.286407 -10053202484.921288 0.000000	-17995347.788291 -10039349538.302582 0.000000	5271847.363690 -10049198069.792459 0.000000	7162905.805026 -10056018195.983103 0.000000	-5097045.739114 -10052120293.001572 0.000000	5005085.912468 -10057407636.405746 0.000000	-4517955.750931 -10056461345.328659 0.000000	-2921704.285252 -10057418625.876299 0.000000	-12809147.165848 -10084686915.315647 0.000000	-78774.419195 -10059450745.327614 0.000000	-2890641.958221 -10053118288.897099 0.000000	0.000007 -10057189925.041197 0.000000	-118203.241081 -10054126082.352867 0.000000	2136277.206156 -10061242663.077763 0.000000	7793013.796997 -10054377993.019260 0.000000	3502374.796585 -10054516251.420815 0.000000	10613510.727474 -10054398148.041389 0.000000	656624.347892 -10057979186.854103 0.000000	1395881.974579 -10057050969.010410 0.000000	2420125.044722 -10060677858.438290 0.000000	29683827.416374 -10007479862.459625 0.000000	-307268.652680 -10057193337.715509 0.000000	262625.604804 -10057222502.336885 0.000000	-1121010.384937 -10057079677.139759 0.000000	469382.200747 -10057345277.127895 0.000000	1813549.325359 -10052843685.960476 0.000000	-7325446.155338 -10054441001.523561 0.000000	-303817.138058 -10053322713.167664 0.000000	184895.418212 -10057377138.834429 0.000000	7309937.707233 -10060794425.501190 0.000000	127697.661278 -10054164114.036127 0.000000	348807.330189 -10050976133.401104 0.000000	-2116594.291222 -10053618429.703381 0.000000	240150.949509 -10057096984.681580 0.000000	1503488.160477 -10056794166.862213 0.000000	-6193838.949273 -10059609062.100286 0.000000	45596174751.750061 -71780968535.300980 0.000000	41853944.288864 -10067811292.144470 0.000000	1203435.451825 -10059318134.155552 0.000000	2391772.902603 -10051717082.222862 0.000000	21964692.552666 -10069696285.680664 0.000000	2905994.032455 -10055753875.003334 0.000000	748380.738782 -10055858668.423412 0.000000	-314815.140542 -10056746969.840591 0.000000	-7981351.034744 -10042699015.907455 0.000000	1400237.283470 -10050360823.542503 0.000000	834245.805496 -10059228072.403557 0.000000	-5320400.965593 -10059423830.761526 0.000000	-3991050.119049 -10052889294.902046 0.000000	-41389.545987 -10057563960.697916 0.000000	-14304048.899529 -10051499158.982491 0.000000	3190553.565460 -10068441846.349911 0.000000	-382952.328011 -10057645059.489195 0.000000	-1032635.461136 -10050883664.562691 0.000000	215230.733548 -10057526502.742903 0.000000	-2418345.898266 -10057153534.425205 0.000000	-30936528.489288 -10044962831.453522 0.000000	4666424.506401 -10064716461.898613 0.000000	592624.064056 -10055632296.744633 0.000000	131469.565946 -10057206241.856087 0.000000	594179.153357 -10062412264.000652 0.000000	-236538.094515 -10057843932.254917 0.000000	23323912.334499 -10131548395.037140 0.000000	-4697957.853565 -10055028799.834114 0.000000	-4548285.207361 -10060367338.455601 0.000000	5567581.170317 -10052964130.013783 0.000000	-186906.396363 -10057253738.440840 0.000000	-7615001.762264 -10057529219.189209 0.000000	-1004390.034441 -10057138448.227516 0.000000	180743.959209 -10058379872.606800 0.000000	-6505.882908 -10056937770.131790 0.000000	-4103521.104401 -10070588425.589249 0.000000	1368971.056610 -10057075567.133011 0.000000	-151702.838625 -10057423012.862593 0.000000	-2184383.924614 -10055367937.870794 0.000000	33675433.626476 -10095178007.866346 0.000000	-2798430.888229 -10052941184.872887 0.000000	-2470600.914291 -10065236110.216354 0.000000	-418513.943722 -10054005294.993889 0.000000	-1511594.162331 -10014151806.069656 0.000000	-240966.902032 -10057263302.485889 0.000000	4789220.624344 -10059344646.544106 0.000000	-136441.640205 -10056695485.646479 0.000000	-17222391.376404 -10004132950.658173 0.000000	-3175841.090382 -4642907.495708 0.000000	-760576.771124 -1911186.957619 0.000000	-5138421.020293 -3746960.698464 0.000000	503937.578188 -3687670.389656 0.000000	-2849678.643021 -2189571.003693 0.000000	-7754162.894831 -3818054.880585 0.000000	-4506413.559849 647793.271208 0.000000	10350352.639156 -2244010.808048 0.000000	809788.639510 -1813438.146196 0.000000	-947726.375691 -4461590.259140 0.000000	-2045327.088226 -2935495.391010 0.000000	-1436297.392798 2170712.756535 0.000000	-894052.982861 -2503847.488506 0.000000	-996363.276745 -3906352.919230 0.000000	121395.553804 4275485.810986 0.000000	9832577.896500 -17985687.863602 0.000000	-3632190.293850 1610415.256581 0.000000	385381.980538 1355591.893100 0.000000	3432774.084694 3243301.411232 0.000000	-2191517.546714 5595210.284139 0.000000	2673660.611914 1545929.032349 0.000000	-3194658.721191 -101132.935818 0.000000	-901426.807069 293370.249521 0.000000	3728950.404007 -574508.529237 0.000000	-1690320.742628 -3665261.799420 0.000000	1768683.125122 4054180.925674 0.000000	3381129.901539 5752534.381506 0.000000	2012177.127370 -349760.162598 0.000000	4157490.598681 7697641.490577 0.000000	-5637770.156830 801925.831875 0.000000	-3895631.146616 1947527.423717 0.000000	-3931229.050331 3095632.351471 0.000000	9296992.504887 2243908.757263 0.000000	4198910.671167 2297936.524689 0.000000	7439134.813120 540899.981558 0.000000	2060052.321533 3479159.750446 0.000000	-4351310.838755 -4171783.081305 0.000000	-1977822.638547 -5635440.836855 0.000000	10387291.749023 -2146599.397926 0.000000	-1196659.634217 -2829383.725747 0.000000	665859.797276 -4299669.011166 0.000000	4985349.173042 8454353.647802 0.000000	1127752.512913 4739461.003410 0.000000	3694898.818565 -3247088.119774 0.000000	3519050.235728 -6401323.584518 0.000000	1136134.316622 11622555.882236 0.000000	4565047.898589 1368782.503345 0.000000	-3679870.370817 2307366.150543 0.000000	-9285778.998993 -50024743.302582 0.000000	-233096.327156 -6517994.244709 0.000000	286085.645758 -2690688.216347 0.000000	-997744.851133 295449.488453 0.000000	4935235.249789 5175807.935764 0.000000	-16411293.860152 -3494822.015697 0.000000	-218907.245780 -1071361.967170 0.000000	-151456.627345 -2080612.687920 0.000000	-2985828.338867 257788.654112 0.000000	3595539.739466 12567926.463356 0.000000	1290192.970879 -5060519.270535 0.000000	744621.490603 -1426398.792572 0.000000	-2512986.265411 17598.369235 0.000000	-5192695.951323 6028045.702623 0.000000	-2141919.601056 -504339.497458 0.000000	-655104.550709 -8022736.598965 0.000000	-10124372.678207 -2430704.819088 0.000000	-532373.734488 7780256.745525 0.000000	-221815.141600 72403.342052 0.000000	764658.419352 -5479739.061176 0.000000	-44482555.771194 56517355.178680 0.000000	-3765093.041553 -5221882.020988 0.000000	-6513454.740065 -3789018.888305 0.000000	12156988.636077 8406653.172417 0.000000	568416.797262 2090554.875317 0.000000	1252783.102921 -2689459.895736 0.000000	-4068789.272962 7725334.891983 0.000000	-8383.390465 906318.297951 0.000000	1483674.179191 3561269.101503 0.000000	5773517.835941 -1331730.681489 0.000000	17193033.354168 -21989472.859785 0.000000	7862126.767925 -10930811.172043 0.000000	525197.261506 -6826000.911535 0.000000	-13554654.584244 -25208638.944214 0.000000	2768217.813728 2050036.585733 0.000000	10314883.693817 2899363.005684 0.000000	-1037625.054459 583944.996607 0.000000	-1938723.810759 538341.282860 0.000000	398799.583755 3733909.280193 0.000000	-470834.928342 -3957383.704086 0.000000	-2336660.768883 2720574.000568 0.000000	6035617.876566 -2234420.462677 0.000000	8280935.614470 -854352.778572 0.000000	108129.221991 1697834.271650 0.000000	-4972214.838730 -4691839.464882 0.000000	-489317.723932 1600818.380364 0.000000	-5960176.853354 308800.295841 0.000000	-10527514.133610 -7619214.888432 0.000000	-897334.766150 -2149830.212254 0.000000	144042.007748 4523492.486618 0.000000	-3187853.538485 -3660796.323849 0.000000	-1752690.784309 -1678667.543247 0.000000	-70784.237889 -10057684454.875486 0.000000	-1562046.054476 -10057101356.328993 0.000000	-118159.924326 -10057399858.628407 0.000000	5939851.756769 -10059353647.122278 0.000000	125477.887687 -10057581122.208685 0.000000	-2303066.468735 -10057096662.226173 0.000000	428766.874799 -10057020621.147465 0.000000	-2267502.649502 -10055546846.702059 0.000000	-3373.008609 -10057558878.873329 0.000000	66993469.363552 -10029286600.924213 0.000000	-6072066.628944 -10056727066.995033 0.000000	-11015585.211498 -10061237922.965942 0.000000	-145469.863708 -10059453816.520771 0.000000	-2776078.997196 -10053400102.574356 0.000000	666253.454021 -10057539320.818087 0.000000	475134.884226 -10058596927.637358 0.000000	-3770498.083250 -10058238943.612740 0.000000	3843841.874847 -10056907896.783434 0.000000	8572518.733421 -10059640256.717096 0.000000	-3537153.265829 -10056405156.152044 0.000000	17312062.205687 -10058818159.954376 0.000000	-704785.168205 -10061112715.032013 0.000000	906390.494150 -10056693125.804459 0.000000	-610028.798775 -10057959490.292118 0.000000	-15563329.394157 -10041130756.025146 0.000000	356038.003924 -10057009160.160406 0.000000	-950062.617811 -10054101555.585793 0.000000	13881404.036795 -10058229043.987164 0.000000	185224.210892 -10056824418.905924 0.000000	-2493351.199257 -10061040333.267082 0.000000	1150920.635742 -10056957288.060648 0.000000	1598525.626440 -10057486556.022894 0.000000	-292386.696028 -10055517925.021551 0.000000	-4529176.363659 -10063643109.057678 0.000000	-7459942.484955 -10059834534.481400 0.000000	729610.877405 -10055066278.006166 0.000000	572895.039182 -10056959956.511551 0.000000	-11764122.884552 -10055895598.370789 0.000000	3282827.091290 -10065167160.562424 0.000000	35639.803978 -10057400960.781387 0.000000	1471492.921009 -10058943367.684404 0.000000	-4767710.886713 -10061803295.215143 0.000000	63340.927996 -10057283186.433039 0.000000	4866845.822435 -10055037475.876148 0.000000	1689745.523594 -10055026698.656418 0.000000	-4657139.129028 -10053821959.149868 0.000000	753735.256855 -10064521669.462433 0.000000	-972100.134967 -10058368934.470730 0.000000	-70857.220890 -10056810688.560234 0.000000	2791118.057795 -10057515789.778206 0.000000	-2174484.598278 -10054558988.593914 0.000000	-2427205.235553 -10057273284.552893 0.000000	-4673271.249684 -10056275208.544462 0.000000	-1182896.349633 -10053033166.746834 0.000000	2295632.216995 -10056280341.549927 0.000000	-3223718.826859 -10057161812.182259 0.000000	1274983.097351 -10064137311.848122 0.000000	612784.757839 -10057163536.503212 0.000000	-8785522.919188 -10063942472.752869 0.000000	10786576.616833 -10061563341.828594 0.000000	231233.385327 -10057033578.938370 0.000000	-110959.736468 -10057247258.885317 0.000000	6594396.834458 -10057794435.424925 0.000000	2988598.811745 -10060887228.334745 0.000000	-364807.347079 -10052757053.570263 0.000000	3597603.536140 -10053025116.187603 0.000000	4776208.924019 -10051611968.875288 0.000000	-2435389.250558 -10057648975.444611 0.000000	-336927.828339 -10057409122.100172 0.000000	2069512.874388 -10056868009.688282 0.000000	-1197632.441938 -10057035991.341045 0.000000	441104.848526 -10056995287.610312 0.000000	-1887264.292248 -10056209447.625839 0.000000	-3488051.699654 -10057042134.555883 0.000000	1255605.817392 -10057955055.665693 0.000000	-1678027.729118 -10054885883.616886 0.000000	-23398.268540 -10056914828.247580 0.000000	489293.961861 -10056341698.578728 0.000000	7445629.793237 -10055583264.685930 0.000000	-208081.104340 -10057572538.522272 0.000000	297993.633320 -10056459060.504604 0.000000	4126096.716163 -10057303725.802567 0.000000	-5546658.388786 -10059450058.881403 0.000000	3388226.656308 -10060302859.481869 0.000000	-5588550.678173 -10051545223.122547 0.000000	-40921.521341 -10057433468.268190 0.000000	16110218.657825 -10036994266.312302 0.000000	1546064.664346 -10057620529.604317 0.000000	-205268.884679 -10057514624.220787 0.000000	-189135.711571 -10057062731.264067 0.000000	4322322.944703 -10051788546.952623 0.000000	6322997.870796 -10054895099.289104 0.000000	-4342053.943127 -10065753222.542133 0.000000	3998515.060637 -10055041950.947670 0.000000	-1687233.886330 -10067940073.157333 0.000000	-432339.261823 -10057945920.467970 0.000000	6128115.403390 -10053915968.579866 0.000000	1131815.107000 -10057667869.145828 0.000000	941077.348325 -10056761523.538425 0.000000	-234287.225348 -10057280962.655251 0.000000	
VECTORS torque float
0.000000 0.000000 0.000000	0.000000 0.000000 0.000000	0.000000 0.000000 0.000000	0.000000 0.000000 0.000000	0.000000 0.000000 0.000000	0.000000 0.000000 0.000000	0.000000 0.000000 0.000000	0.000000 0.000000 0.000000	0.000000 0.000000 0.000000	0.000000 0.000000 0.000000	0.000000 0.000000 0.000000	0.000000 0.000000 0.000000	0.000000 0.000000 0.000000	0.000000 0.000000 0.000000	0.000000 0.000000 0.000000	0.000000 0.000000 0.000000	0.000000 0.000000 0.000000	0.000000 0.000000 0.000000	0.000000 0.000000 0.000000	0.000000 0.000000 0.000000	0.000000 0.000000 0.000000	0.000000 0.000000 0.000000	0.000000 0.000000 0.000000	0.000000 0.000000 0.000000	0.000000 0.000000 0.000000	0.000000 0.000000 0.000000	0.000000 0.000000 0.000000	0.000000 0.000000 0.000000	0.000000 0.000000 0.000000	0.000000 0.000000 0.000000	0.000000 0.000000 0.000000	0.000000 0.000000 0.000000	0.000000 0.000000 0.000000	0.000000 0.000000 0.000000	0.000000 0.000000 0.000000	0.000000 0.000000 0.000000	0.000000 0.000000 0.000000	0.000000 0.000000 0.000000	0.000000 0.000000 0.000000	0.000000 0.000000 0.000000	0.000000 0.000000 0.000000	0.000000 0.000000 0.000000	0.000000 0.000000 0.000000	0.000000 0.000000 0.000000	0.000000 0.000000 0.000000	0.000000 0.000000 0.000000	0.000000 0.000000 0.000000	0.000000 0.000000 0.000000	0.000000 0.000000 0.000000	0.000000 0.000000 0.000000	0.000000 0.000000 0.000000	0.000000 0.000000 0.000000	0.000000 0.000000 0.000000	0.000000 0.000000 0.000000	0.000000 0.000000 0.000000	0.000000 0.000000 0.000000	0.000000 0.000000 0.000000	0.000000 0.000000 0.000000	0.000000 0.000000 0.000000	0.000000 0.000000 0.000000	0.000000 0.000000 0.000000	0.000000 0.000000 0.000000	0.000000 0.000000 0.000000	0.000000 0.000000 0.000000	0.000000 0.000000 0.000000	0.000000 0.000000 0.000000	0.000000 0.000000 0.000000	0.000000 0.000000 0.000000	0.000000 0.000000 0.000000	0.000000 0.000000 0.000000	0.000000 0.000000 0.000000	0.000000 0.000000 0.000000	0.000000 0.000000 0.000000	0.000000 0.000000 0.000000	0.000000 0.000000 0.000000	0.000000 0.000000 0.000000	0.000000 0.000000 0.000000	0.000000 0.000000 0.000000	0.000000 0.000000 0.000000	0.000000 0.000000 0.000000	0.000000 0.000000 0.000000	0.000000 0.000000 0.000000	0.000000 0.000000 0.000000	0.000000 0.000000 0.000000	0.000000 0.000000 0.000000	0.000000 0.000000 0.000000	0.000000 0.000000 0.000000	0.000000 0.000000 0.000000	0.000000 0.000000 0.000000	0.000000 0.000000 0.000000	0.000000 0.000000 169046947583.645630	0.000000 0.000000 -14452531136.245419	0.000000 0.000000 -16634008960.792864	0.000000 0.000000 -314936853110.666321	0.000000 0.000000 219838121007.196777	0.000000 0.000000 168254328516.361511	0.000000 0.000000 666868195672.171631	0.000000 0.000000 17188189425.314053	0.000000 0.000000 42177713478.445580	0.000000 0.000000 -372152879222.580078	0.000000 0.000000 -3746347058.928277	0.000000 0.000000 -172081936209.527283	0.000000 0.000000 683232080757.275024	0.000000 0.000000 661629583215.009766	0.000000 0.000000 297023867401.953308	0.000000 0.000000 850286234904.225098	0.000000 0.000000 1018523556640.613037	0.000000 0.000000 0.000000	0.000000 0.000000 461889162090.472046	0.000000 0.000000 -183566880298.466217	0.000000 0.000000 0.000000	0.000000 0.000000 1696385003181.352539	0.000000 0.000000 -2572549342151.647949	0.000000 0.000000 -63553158242.467697	0.000000 0.000000 -67834091163.686455	0.000000 0.000000 -1370916290472.373535	0.000000 0.000000 -1007188535074.724731	0.000000 0.000000 1765211543438.171875	0.000000 0.000000 -77768739241.893631	0.000000 0.000000 466606577509.140076	0.000000 0.000000 -337581717497.818970	0.000000 0.000000 0.000000	0.000000 0.000000 463493515919.168823	0.000000 0.000000 -614116729477.184814	0.000000 0.000000 -665166084032.392090	0.000000 0.000000 -196430532292.222015	0.000000 0.000000 -25926365238.345055	0.000000 0.000000 -2733129399065.000000	0.000000 0.000000 1370519842684.456299	0.000000 0.000000 -351816864902.004395	0.000000 0.000000 -435625538772.660156	0.000000 0.000000 65907598181.926758	0.000000 0.000000 1482495416350.346436	0.000000 0.000000 1328796146459.109131	0.000000 0.000000 11220038330.051367	0.000000 0.000000 257267341178.761719	0.000000 0.000000 209072728323.848541	0.000000 0.000000 721356390149.285400	0.000000 0.000000 812913080451.771240	0.000000 0.000000 -2563487573818.678711	0.000000 0.000000 1090280536878.002686	0.000000 0.000000 699862373805.718994	0.000000 0.000000 -1309774988064.467773	0.000000 0.000000 841849335104.558960	0.000000 0.000000 690141663325.584229	0.000000 0.000000 -2740499049672.370605	0.000000 0.000000 -203940967990.154480	0.000000 0.000000 36618119332.580307	0.000000 0.000000 -1300758914780.162109	0.000000 0.000000 207053002528.253021	0.000000 0.000000 27407800287.446487	0.000000 0.000000 316098710929.719727	0.000000 0.000000 -793319389012.576660	0.000000 0.000000 0.000000	0.000000 0.000000 -452853479862.986450	0.000000 0.000000 -1259376116318.803711	0.000000 0.000000 -2149497138028.177246	0.000000 0.000000 199314612355.326355	0.000000 0.000000 -2490377211109.008789	0.000000 0.000000 -1509533603233.245605	0.000000 0.000000 162536003301.615906	0.000000 0.000000 -363459927840.438721	0.000000 0.000000 -834517315406.584961	0.000000 0.000000 1412063825161.386963	0.000000 0.000000 -362493753514.541016	0.000000 0.000000 -236216305817.957214	0.000000 0.000000 -1415284108586.946533	0.000000 0.000000 0.000000	0.000000 0.000000 -1851430768297.624512	0.000000 0.000000 -951643191971.423828	0.000000 0.000000 0.000000	0.000000 0.000000 -937578804293.228271	0.000000 0.000000 512907846024.154907	0.000000 0.000000 -95323398300.791992	0.000000 0.000000 -676746335308.444214	0.000000 0.000000 -269828143021.847626	0.000000 0.000000 -11509024449.209549	0.000000 0.000000 0.000000	0.000000 0.000000 0.000000	0.000000 0.000000 0.000000	0.000000 0.000000 0.000000	0.000000 0.000000 0.000000	0.000000 0.000000 0.000000	0.000000 0.000000 0.000000	0.000000 0.000000 0.000000	0.000000 0.000000 0.000000	0.000000 0.000000 0.000000	0.000000 0.000000 0.000000	0.000000 0.000000 0.000000	0.000000 0.000000 0.000000	0.000000 0.000000 0.000000	0.000000 0.000000 0.000000	0.000000 0.000000 0.000000	0.000000 0.000000 0.000000	0.000000 0.000000 0.000000	0.000000 0.000000 0.000000	0.000000 0.000000 0.000000	0.000000 0.000000 0.000000	0.000000 0.000000 0.000000	0.000000 0.000000 0.000000	0.000000 0.000000 0.000000	0.000000 0.000000 0.000000	0.000000 0.000000 0.000000	0.000000 0.000000 0.000000	0.000000 0.000000 0.000000	0.000000 0.000000 0.000000	0.000000 0.000000 0.000000	0.000000 0.000000 0.000000	0.000000 0.000000 0.000000	0.000000 0.000000 0.000000	0.000000 0.000000 0.000000	0.000000 0.000000 0.000000	0.000000 0.000000 0.000000	0.000000 0.000000 0.000000	0.000000 0.000000 0.000000	0.000000 0.000000 0.000000	0.000000 0.000000 0.000000	0.000000 0.000000 0.000000	0.000000 0.000000 0.000000	0.000000 0.000000 0.000000	0.000000 0.000000 0.000000	0.000000 0.000000 0.000000	0.000000 0.000000 57662240.413849	0.000000 0.000000 230643588.526794	0.000000 0.000000 -373087739.329453	0.000000 0.000000 -28193896.012238	0.000000 0.000000 -299239401.729980	0.000000 0.000000 -58707051.272949	0.000000 0.000000 265533007.909668	0.000000 0.000000 2834472.533081	0.000000 0.000000 36274827.170738	0.000000 0.000000 -437974009.402100	0.000000 0.000000 -251040421.617676	0.000000 0.000000 -459097739.364990	0.000000 0.000000 256400282.639954	0.000000 0.000000 -266516261.258621	0.000000 0.000000 -202309489.801270	0.000000 0.000000 116933375.447647	0.000000 0.000000 -197501640.038574	0.000000 0.000000 -86605230.068848	0.000000 0.000000 90013247.191895	0.000000 0.000000 -159896100.295776	0.000000 0.000000 146827593.588135	0.000000 0.000000 -82261744.545166	0.000000 0.000000 -196377553.502441	0.000000 0.000000 136317668.155273	0.000000 0.000000 211322788.947021	0.000000 0.000000 234374041.565430	0.000000 0.000000 29937187.381470	0.000000 0.000000 -533000618.349365	0.000000 0.000000 -264742690.093018	0.000000 0.000000 7517990.953613	0.000000 0.000000 23323961.095215	0.000000 0.000000 -333362609.111572	0.000000 0.000000 -31742247.283447	0.000000 0.000000 115420806.880371	0.000000 0.000000 -56168717.958252	0.000000 0.000000 88153218.499329	0.000000 0.000000 51332781.023438	0.000000 0.000000 45740965.020752	0.000000 0.000000 119744003.104095	0.000000 0.000000 358758872.771606	0.000000 0.000000 -144127879.416901	0.000000 0.000000 620902874.958008	0.000000 0.000000 69578430.193115	0.000000 0.000000 -222929571.362427	0.000000 0.000000 -65476799.194702	0.000000 0.000000 260222849.848633	0.000000 0.000000 -360367595.086426	0.000000 0.000000 -195376765.697754	0.000000 0.000000 -500168172.250977	0.000000 0.000000 68750212.854492	0.000000 0.000000 -47166426.305359	0.000000 0.000000 -180758832.057861	0.000000 0.000000 -6649018.358887	0.000000 0.000000 210216628.616028	0.000000 0.000000 667440780.120117	0.000000 0.000000 68526200.484009	0.000000 0.000000 428846636.371613	0.000000 0.000000 392418772.382324	0.000000 0.000000 108436069.060974	0.000000 0.000000 34321693.107422	0.000000 0.000000 48567053.870056	0.000000 0.000000 -71031696.085449	0.000000 0.000000 218887200.686369	0.000000 0.000000 93895227.709473	0.000000 0.000000 -420521090.278076	0.000000 0.000000 8504789.249146	0.000000 0.000000 414992249.042480	0.000000 0.000000 -205660155.691284	0.000000 0.000000 -1202852.297852	0.000000 0.000000 -23331080.811035	0.000000 0.000000 -100649516.015564	0.000000 0.000000 -263932583.698730	0.000000 0.000000 -18433975.047363	0.000000 0.000000 -17934872.813477	0.000000 0.000000 -42092933.927612	0.000000 0.000000 -148818298.785385	0.000000 0.000000 372121059.173584	0.000000 0.000000 -88939922.306763	0.000000 0.000000 5331460.023926	0.000000 0.000000 382313385.434082	0.000000 0.000000 -37611954.958984	0.000000 0.000000 -97464558.763672	0.000000 0.000000 -480954591.118896	0.000000 0.000000 -240593536.813583	0.000000 0.000000 243868481.569946	0.000000 0.000000 602756412.257622	0.000000 0.000000 63887172.010742	0.000000 0.000000 36606894.105164	0.000000 0.000000 -83283646.791992	0.000000 0.000000 -180729042.814880	0.000000 0.000000 -212882287.211792	0.000000 0.000000 -573824165.059151	0.000000 0.000000 523916246.500031	0.000000 0.000000 -46165288.364258	0.000000 0.000000 250873189.467041	0.000000 0.000000 -288658735.119537	0.000000 0.000000 -289310444.260132	0.000000 0.000000 -389462588.717773	0.000000 0.000000 411746120.822998	0.000000 0.000000 -159457073.202759	0.000000 0.000000 -4946855.677124	0.000000 0.000000 -144982345.954102	0.000000 0.000000 -211987240.074219	0.000000 0.000000 28136918.165253	0.000000 0.000000 -21201782.270935	0.000000 0.000000 -95500766.802307	0.000000 0.000000 56259401.305298	0.000000 0.000000 52087435.350159	0.000000 0.000000 186462505.928833	0.000000 0.000000 4602755.053591	0.000000 0.000000 -119861327.846313	0.000000 0.000000 -48663673.588806	0.000000 0.000000 -260516846.452637	0.000000 0.000000 30786928.160828	0.000000 0.000000 -105640.659840	0.000000 0.000000 5349770.462891	0.000000 0.000000 902580.630962	0.000000 0.000000 -226899238.681396	0.000000 0.000000 -304546421.983185	0.000000 0.000000 -165234337.510376	0.000000 0.000000 -249170682.579834	0.000000 0.000000 -48214576.685913	0.000000 0.000000 -18426200.494995	0.000000 0.000000 -26620457.856178	0.000000 0.000000 76635811.847748	0.000000 0.000000 -2170307.502075	0.000000 0.000000 -223044672.717285	0.000000 0.000000 -2235566.994385	0.000000 0.000000 -8462663.395273	0.000000 0.000000 159996931.628845	0.000000 0.000000 -30333366.857475	0.000000 0.000000 -91874557.359680	0.000000 0.000000 -500171407.834595	0.000000 0.000000 260039751.621033	0.000000 0.000000 163785076.942322	0.000000 0.000000 -291588394.766113	0.000000 0.000000 -147922519.572998	0.000000 0.000000 144625211.070679	0.000000 0.000000 453364805.539307	0.000000 0.000000 85092934.563934	0.000000 0.000000 11367803.698120	0.000000 0.000000 80662717.817139	0.000000 0.000000 -274802.293701	0.000000 0.000000 0.000000	0.000000 0.000000 -10439230.313416	0.000000 0.000000 -11706186.937744	0.000000 0.000000 370572682.125000	0.000000 0.000000 26178988.441437	0.000000 0.000000 -19983954.458832	0.000000 0.000000 49592867.097137	0.000000 0.000000 -14974046.389313	0.000000 0.000000 -9596477.714539	0.000000 0.000000 9666929.717316	0.000000 0.000000 -294174601.356079	0.000000 0.000000 230892835.904053	0.000000 0.000000 -4126640.904945	0.000000 0.000000 -21476885.580673	0.000000 0.000000 13813113.897095	0.000000 0.000000 191145891.866699	0.000000 0.000000 30549097.147629	0.000000 0.000000 328443435.132080	0.000000 0.000000 -90753080.685791	0.000000 0.000000 -49577981.707275	0.000000 0.000000 112698005.669128	0.000000 0.000000 27554361.612885	0.000000 0.000000 -47733880.383301	0.000000 0.000000 41866020.170410	0.000000 0.000000 -8502550.308456	0.000000 0.000000 -30248301.295898	0.000000 0.000000 -114895130.290161	0.000000 0.000000 -228417592.222656	0.000000 0.000000 73961.721024	0.000000 0.000000 -214.523151	0.000000 0.000000 82953505.237846	0.000000 0.000000 -17962910.499268	0.000000 0.000000 272446483.728638	0.000000 0.000000 -52544144.905029	0.000000 0.000000 238626490.337891	0.000000 0.000000 -195708902.979492	0.000000 0.000000 235046046.828613	0.000000 0.000000 35607963.344574	0.000000 0.000000 27003050.346588	0.000000 0.000000 -26314660.334229	0.000000 0.000000 -70161058.954132	0.000000 0.000000 -57687693.180038	0.000000 0.000000 -24351503.190247	0.000000 0.000000 452860962.240967	0.000000 0.000000 3102055.350956	0.000000 0.000000 215524140.093384	0.000000 0.000000 -245682832.888306	0.000000 0.000000 50121532.131138	0.000000 0.000000 -103223572.295654	0.000000 0.000000 221972548.499512	0.000000 0.000000 -225501030.069580	0.000000 0.000000 -151389923.425293	0.000000 0.000000 28674612.200806	0.000000 0.000000 24031715.497559	0.000000 0.000000 -23440506.742981	0.000000 0.000000 -233909793.573120	0.000000 0.000000 -208193212.950195	0.000000 0.000000 109101961.004395	0.000000 0.000000 -184853592.953003	0.000000 0.000000 -22012738.245331	0.000000 0.000000 172492535.377930	0.000000 0.000000 19749645.371055	0.000000 0.000000 57845459.438477	0.000000 0.000000 152650002.225891	0.000000 0.000000 -405300636.587891	0.000000 0.000000 27155943.085327	0.000000 0.000000 -312547910.689697	0.000000 0.000000 -421888570.713135	0.000000 0.000000 -263943735.370239	0.000000 0.000000 -147533849.288879	0.000000 0.000000 -46125826.334274	0.000000 0.000000 300199249.086334	0.000000 0.000000 -160341684.993164	0.000000 0.000000 189663086.794800	0.000000 0.000000 -16170387.106445	0.000000 0.000000 -96636533.052002	0.000000 0.000000 28572949.219971	0.000000 0.000000 -427176623.171509	0.000000 0.000000 114909731.895935	0.000000 0.000000 -64754696.546660	0.000000 0.000000 -14225679.184674	0.000000 0.000000 -7882354.783752	0.000000 0.000000 239778926.341797	0.000000 0.000000 -10308910.609436	0.000000 0.000000 30893161.871460	0.000000 0.000000 221877334.460999	0.000000 0.000000 344742442.638916	0.000000 0.000000 -112915683.637451	0.000000 0.000000 32239860.380890	0.000000 0.000000 -36151495.595843	0.000000 0.000000 -127728042.797791	0.000000 0.000000 304468631.209229	0.000000 0.000000 -32400972.067688	0.000000 0.000000 -418043326.142578	0.000000 0.000000 40110464.350342	0.000000 0.000000 3831079.936111	0.000000 0.000000 -93049043.763794	0.000000 0.000000 -451456253.404556	0.000000 0.000000 -116505553.458008	0.000000 0.000000 77975854.012573	0.000000 0.000000 -72918875.707214	0.000000 0.000000 113017191.200195	0.000000 0.000000 -129184421.866943	0.000000 0.000000 -33492587.984192	0.000000 0.000000 -310964431.838867	0.000000 0.000000 364801467.279884	0.000000 0.000000 4984748.116943	0.000000 0.000000 -108985726.114502	0.000000 0.000000 32825972.043026	0.000000 0.000000 8600327.887695	0.000000 0.000000 1942447.917145	0.000000 0.000000 431216390.119019	0.000000 0.000000 1384541.852844	0.000000 0.000000 -53986462.948212	0.000000 0.000000 384499226.620361	0.000000 0.000000 -786703250.684448	0.000000 0.000000 -23724674.027939	0.000000 0.000000 -64835996.683350	0.000000 0.000000 1922299.647675	0.000000 0.000000 -172985300.037140	0.000000 0.000000 -155362630.568100	0.000000 0.000000 3369839.274780	0.000000 0.000000 521696949.212891	0.000000 0.000000 -257452253.553955	0.000000 0.000000 -274907269.550415	0.000000 0.000000 -46337892.006348	0.000000 0.000000 40211652.485840	0.000000 0.000000 -90154140.351807	0.000000 0.000000 226157043.387451	0.000000 0.000000 61855430.735352	0.000000 0.000000 33287345.978577	0.000000 0.000000 39959920.993835	0.000000 0.000000 -46093875.537529	0.000000 0.000000 482073186.377563	0.000000 0.000000 -128994250.430664	0.000000 0.000000 -48422465.397949	0.000000 0.000000 -602194204.290955	0.000000 0.000000 -88055972.032227	0.000000 0.000000 9354771.801300	0.000000 0.000000 44361096.647217	0.000000 0.000000 -18033279.591705	0.000000 0.000000 -116794838.212524	0.000000 0.000000 -140672942.354370	0.000000 0.000000 -200986566.941772	0.000000 0.000000 374406485.579346	0.000000 0.000000 131823672.081543	0.000000 0.000000 245373797.112671	0.000000 0.000000 92572953.542404	0.000000 0.000000 213960466.584961	0.000000 0.000000 -75642987.349426	0.000000 0.000000 -501211442.418091	0.000000 0.000000 92074719.286560	0.000000 0.000000 -6407053.782692	0.000000 0.000000 389287896.600586	0.000000 0.000000 45947848.242065	0.000000 0.000000 -123338677.874268	0.000000 0.000000 62171439.097412	0.000000 0.000000 34817720.948669	0.000000 0.000000 1316535.488087	0.000000 0.000000 -37775402.013382	0.000000 0.000000 107254979.351906	0.000000 0.000000 27144229.954346	0.000000 0.000000 -44941042.417221	0.000000 0.000000 -38819461.628662	0.000000 0.000000 -144153121.550293	0.000000 0.000000 -23603103.779724	0.000000 0.000000 -3811739.454407	0.000000 0.000000 230750356.020508	0.000000 0.000000 743826111.290161	0.000000 0.000000 81681255.108856	0.000000 0.000000 -6778395.660461	0.000000 0.000000 -20041927.970520	0.000000 0.000000 -37604468.065674	0.000000 0.000000 -172242232.565918	0.000000 0.000000 -1027273.086290	0.000000 0.000000 1973369.046402	0.000000 0.000000 204971301.836304	0.000000 0.000000 -73264018.438599	0.000000 0.000000 437657608.248596	0.000000 0.000000 55815460.222412	0.000000 0.000000 105773013.446045	0.000000 0.000000 157728.756268	0.000000 0.000000 46927894.546936	0.000000 0.000000 -23009088.788452	0.000000 0.000000 -53273772.344910	0.000000 0.000000 23736510.019592	0.000000 0.000000 -10580729.392731	0.000000 0.000000 -15697362.056107	0.000000 0.000000 -78649045.069122	0.000000 0.000000 -99898223.422852	0.000000 0.000000 2466005.538876	0.000000 0.000000 16376299.524048	0.000000 0.000000 22694864.152893	0.000000 0.000000 -7274971.967773	0.000000 0.000000 -1052335.709724	0.000000 0.000000 -709440.068275	0.000000 0.000000 22105966.879761	0.000000 0.000000 41141584.561890	0.000000 0.000000 -33819996.254333	0.000000 0.000000 -235397913.158447	0.000000 0.000000 44174340.291183	0.000000 0.000000 -8191311.837952	0.000000 0.000000 -14271358.438782	0.000000 0.000000 -267460389.142090	0.000000 0.000000 -157739229.993408	0.000000 0.000000 -205556105.855774	0.000000 0.000000 -1022517.483751	0.000000 0.000000 -280780981.737061	0.000000 0.000000 -4024076.351028	0.000000 0.000000 180762760.589478	0.000000 0.000000 27507034.278015	0.000000 0.000000 -4758527.562561	0.000000 0.000000 254525085.007996	0.000000 0.000000 2927662.349182	0.000000 0.000000 1735227.181034	0.000000 0.000000 135261795.774170	0.000000 0.000000 -8879239.254944	0.000000 0.000000 -129711194.941772	0.000000 0.000000 -61494132.276245	0.000000 0.000000 -71448298.928955	0.000000 0.000000 620914.708008	0.000000 0.000000 48244872.144409	0.000000 0.000000 119806715.635468	0.000000 0.000000 118066079.895294	0.000000 0.000000 -31496924.504303	0.000000 0.000000 -1863701.758514	0.000000 0.000000 -259199506.832825	0.000000 0.000000 77626821.622070	0.000000 0.000000 4929478.566658	0.000000 0.000000 -95154701.725464	0.000000 0.000000 -49772075.132118	0.000000 0.000000 -211154882.462952	0.000000 0.000000 -4038470.806732	0.000000 0.000000 -451301.736938	0.000000 0.000000 -14344836.390778	0.000000 0.000000 20319215.614532	0.000000 0.000000 -1011931.971352	0.000000 0.000000 2142678.902351	0.000000 0.000000 -275918672.533081	0.000000 0.000000 35554172.477423	0.000000 0.000000 19665776.799927	0.000000 0.000000 21240491.232788	0.000000 0.000000 -8274126.766663	0.000000 0.000000 -168926378.293701	0.000000 0.000000 -69917610.405396	0.000000 0.000000 -182637997.338867	0.000000 0.000000 -182659571.539062	0.000000 0.000000 5894670.388062	0.000000 0.000000 -25346591.321350	0.000000 0.000000 254487296.285034	0.000000 0.000000 -357745421.428711	0.000000 0.000000 -171130178.881348	0.000000 0.000000 129917292.425598	0.000000 0.000000 2274410.178886	0.000000 0.000000 -29901018.898697	0.000000 0.000000 105503226.810974	0.000000 0.000000 132272559.232849	0.000000 0.000000 -52151573.956299	0.000000 0.000000 -471844711.301208	0.000000 0.000000 -1936921.356018	0.000000 0.000000 241789337.284973	0.000000 0.000000 -107962333.107239	0.000000 0.000000 -18089937.047882	0.000000 0.000000 10737912.809662	0.000000 0.000000 -229239555.393372	0.000000 0.000000 -111602315.948242	0.000000 0.000000 -108442907.161377	0.000000 0.000000 94738659.072083	0.000000 0.000000 -14578187.260071	0.000000 0.000000 716544.593079	0.000000 0.000000 -51383112.382004	0.000000 0.000000 -95028182.714844	0.000000 0.000000 -179037938.516418	0.000000 0.000000 -7165880.680115	0.000000 0.000000 -39886743.807007	0.000000 0.000000 -183571937.736420	0.000000 0.000000 -170063975.563553	0.000000 0.000000 1747532.726707	0.000000 0.000000 -220463497.792198	0.000000 0.000000 12079694.375122	0.000000 0.000000 -23872285.379036	0.000000 0.000000 -403379318.506409	0.000000 0.000000 -47512529.957214	0.000000 0.000000 -437727859.619019	0.000000 0.000000 -152572755.537842	0.000000 0.000000 76164413.812347	0.000000 0.000000 61088755.931763	0.000000 0.000000 -5247661.553009	0.000000 0.000000 7145637.448059	0.000000 0.000000 -14275095.708740	0.000000 0.000000 -88920201.904785	0.000000 0.000000 35350908.691345	0.000000 0.000000 -10001363.952946	0.000000 0.000000 2211808.661682	0.000000 0.000000 -226322006.566528	0.000000 0.000000 -354804964.174255	0.000000 0.000000 -218488316.434601	0.000000 0.000000 -418703341.620850	0.000000 0.000000 217388580.351807	0.000000 0.000000 315668210.366211	0.000000 0.000000 2880898.800171	0.000000 0.000000 -16175168.226765	0.000000 0.000000 -17174168.257931	0.000000 0.000000 138304120.301090	0.000000 0.000000 24281861.393738	0.000000 0.000000 -231646386.909058	0.000000 0.000000 16264831.892456	0.000000 0.000000 202881759.883057	0.000000 0.000000 -227285895.672470	0.000000 0.000000 -22665087.684204	0.000000 0.000000 -76072435.124023	0.000000 0.000000 108137880.139954	0.000000 0.000000 862750.328270	0.000000 0.000000 99452213.021545	0.000000 0.000000 -27856377.564880	0.000000 0.000000 476110.867374	0.000000 0.000000 259149544.146118	0.000000 0.000000 13801387.839203	0.000000 0.000000 63860786.097656	0.000000 0.000000 130950454.581299	0.000000 0.000000 40516540.332764	0.000000 0.000000 251215.048109	0.000000 0.000000 -38717183.950729	0.000000 0.000000 -22936878.247345	0.000000 0.000000 -35030720.004913	0.000000 0.000000 27233409.339539	0.000000 0.000000 -36104352.545107	0.000000 0.000000 -206936182.115723	0.000000 0.000000 -2612921.033768	0.000000 0.000000 -20500585.171570	0.000000 0.000000 -48402388.598572	0.000000 0.000000 -181910252.731979	0.000000 0.000000 43190441.151764	0.000000 0.000000 6793507.557384	0.000000 0.000000 -477433704.539307	0.000000 0.000000 -155265837.022827	0.000000 0.000000 -423603906.123291	0.000000 0.000000 82090967.713196	0.000000 0.000000 -158466431.483398	0.000000 0.000000 -165779614.070435	0.000000 0.000000 -106559345736.230591	0.000000 0.000000 -166538729.558472	0.000000 0.000000 79007502.160210	0.000000 0.000000 13140374.308350	0.000000 0.000000 -8075921.869965	0.000000 0.000000 -151686923.884399	0.000000 0.000000 29869598.870052	0.000000 0.000000 8142575.205933	0.000000 0.000000 -5057363.865784	0.000000 0.000000 -223022941.036194	0.000000 0.000000 -26268222.080215	0.000000 0.000000 52821999.686739	0.000000 0.000000 424616837.767761	0.000000 0.000000 42193806.290649	0.000000 0.000000 33947915.006737	0.000000 0.000000 -15607402.717041	0.000000 0.000000 332886608.952515	0.000000 0.000000 4223046.067566	0.000000 0.000000 -596981.545364	0.000000 0.000000 254665551.490234	0.000000 0.000000 -5103907.084351	0.000000 0.000000 -10612817.204315	0.000000 0.000000 -8952158.840515	0.000000 0.000000 35588189.992065	0.000000 0.000000 -6995071.547089	0.000000 0.000000 -25860906.072845	0.000000 0.000000 -320560.204636	0.000000 0.000000 -179173026.981079	0.000000 0.000000 -108000514.163193	0.000000 0.000000 24833687.553894	0.000000 0.000000 -73254036.387634	0.000000 0.000000 5478741.393616	0.000000 0.000000 30899909.474686	0.000000 0.000000 -28947598.186951	0.000000 0.000000 25464200.478420	0.000000 0.000000 -4164745.762375	0.000000 0.000000 -20331031.303539	0.000000 0.000000 5416752.787384	0.000000 0.000000 -46694839.193542	0.000000 0.000000 -144931504.533936	0.000000 0.000000 -4718268.082855	0.000000 0.000000 35483414.060791	0.000000 0.000000 42234476.523529	0.000000 0.000000 -238564801.362793	0.000000 0.000000 0.000000	0.000000 0.000000 99552100.511353	0.000000 0.000000 -3223186.424294	0.000000 0.000000 -9752.607731	0.000000 0.000000 -92866.959534	0.000000 0.000000 42239621.369629	0.000000 0.000000 -16096437.903603	0.000000 0.000000 -295264991.178467	0.000000 0.000000 9459379.615616	0.000000 0.000000 -27545952.268311	0.000000 0.000000 3256424.278492	0.000000 0.000000 -2466946.662195	0.000000 0.000000 20403639.930054	0.000000 0.000000 -634031.085264	0.000000 0.000000 -20953214.969249	0.000000 0.000000 -5431073.000977	0.000000 0.000000 4276499.405487	0.000000 0.000000 27503.014989	0.000000 0.000000 49640441.727295	0.000000 0.000000 -31767639.771088	0.000000 0.000000 -17033335.862854	0.000000 0.000000 -13036546.558502	0.000000 0.000000 -577895.612543	0.000000 0.000000 -11452095.911346	0.000000 0.000000 269124070.469818	0.000000 0.000000 -88684608029.628586	0.000000 0.000000 -137838305.997131	0.000000 0.000000 -6691261.911076	0.000000 0.000000 -29815099.608826	0.000000 0.000000 14732467.969116	0.000000 0.000000 -179803340.117737	0.000000 0.000000 29453147.637041	0.000000 0.000000 1987365.019455	0.000000 0.000000 -3167378.991699	0.000000 0.000000 -2830502.890320	0.000000 0.000000 -102101737.514465	0.000000 0.000000 -17065644.855331	0.000000 0.000000 -9791945.988373	0.000000 0.000000 151916.694202	0.000000 0.000000 -98268227.263184	0.000000 0.000000 189535155.379883	0.000000 0.000000 -37331963.422699	0.000000 0.000000 -17889736.385834	0.000000 0.000000 19671900.887566	0.000000 0.000000 -31512149.533279	0.000000 0.000000 85657220.008545	0.000000 0.000000 32467059.244873	0.000000 0.000000 -542030.609249	0.000000 0.000000 808410.347435	0.000000 0.000000 -8155187.817474	0.000000 0.000000 -10595879.198990	0.000000 0.000000 78842537.028976	0.000000 0.000000 -226823613.475052	0.000000 0.000000 22601345.379120	0.000000 0.000000 5310827.295242	0.000000 0.000000 -208567.551828	0.000000 0.000000 -23065777.539856	0.000000 0.000000 -26520223.414932	0.000000 0.000000 261268.676667	0.000000 0.000000 80178.945269	0.000000 0.000000 1337670.487198	0.000000 0.000000 15526748.188721	0.000000 0.000000 834420.576664	0.000000 0.000000 -27904021.054932	0.000000 0.000000 7687465.522980	0.000000 0.000000 348496557.134888	0.000000 0.000000 -1318563.040277	0.000000 0.000000 4666281.629089	0.000000 0.000000 -14815028.013672	0.000000 0.000000 -1383314.679211	0.000000 0.000000 3611873.334045	0.000000 0.000000 20575747.262230	0.000000 0.000000 199785578.675171	0.000000 0.000000 9133342.899078	0.000000 0.000000 -220314501.821045	0.000000 0.000000 9917638.707514	0.000000 0.000000 14935620.414246	0.000000 0.000000 28220278.479004	0.000000 0.000000 -258673892.430176	0.000000 0.000000 -147718766.500275	0.000000 0.000000 39073992.599991	0.000000 0.000000 27781563.649872	0.000000 0.000000 2271542.362959	0.000000 0.000000 -5519907.990479	0.000000 0.000000 -3131304.578756	0.000000 0.000000 1173524.754722	0.000000 0.000000 52838469.831524	0.000000 0.000000 -1304984.480629	0.000000 0.000000 -190736784.215088	0.000000 0.000000 -193227954.589218	0.000000 0.000000 -22459648.516998	0.000000 0.000000 17764290.740295	0.000000 0.000000 9266287.451202	0.000000 0.000000 -4931387.776337	0.000000 0.000000 2995446.211060	0.000000 0.000000 -18615112.366211	0.000000 0.000000 -6684037.477602	0.000000 0.000000 13707239.762390	0.000000 0.000000 19882936.480591	0.000000 0.000000 16267665.873108	0.000000 0.000000 -39677232.195007	0.000000 0.000000 -19738947.105039	0.000000 0.000000 25146082.197388	0.000000 0.000000 2407436.372520	0.000000 0.000000 -1125507.130280	0.000000 0.000000 51701162.513306	0.000000 0.000000 -9665189.801331	0.000000 0.000000 90115901.949234	0.000000 0.000000 2702110.602478	0.000000 0.000000 -6380907.883179	0.000000 0.000000 -33537681.993073	0.000000 0.000000 -75798704.182983	0.000000 0.000000 -52410932.733215	0.000000 0.000000 15891769.192688	0.000000 0.000000 -45639847.575016	0.000000 0.000000 -30477930.286972	0.000000 0.000000 39415532.880035	0.000000 0.000000 -59096466.204590	0.000000 0.000000 1882886.817200	0.000000 0.000000 -3043514.047516	0.000000 0.000000 52169303.715576	0.000000 0.000000 -21829634.356323	0.000000 0.000000 -76537121.262878	0.000000 0.000000 -4902248.025574	0.000000 0.000000 -5284697.295776	0.000000 0.000000 8301778.617429	0.000000 0.000000 7438776.878834	0.000000 0.000000 -42278.409832	0.000000 0.000000 -14021312.233521	0.000000 0.000000 19700230.780280	0.000000 0.000000 -17181077.665726	0.000000 0.000000 2882418.037170	0.000000 0.000000 -27410606.539276	0.000000 0.000000 -25107198.814533	0.000000 0.000000 22409456.680115	0.000000 0.000000 -44665231.071205	0.000000 0.000000 -11755932.887470	0.000000 0.000000 -17401512.693123	0.000000 0.000000 -57873756.894592	0.000000 0.000000 -2471334.872375	0.000000 0.000000 -9651593.151489	0.000000 0.000000 209219076.003174	0.000000 0.000000 -13771161.943451	0.000000 0.000000 -25472873.809036	0.000000 0.000000 -6144903.285553	0.000000 0.000000 800825.034058	0.000000 0.000000 11432807.440552	0.000000 0.000000 -190452127.161872	0.000000 0.000000 -22706407.515320	0.000000 0.000000 -33082322.937065	0.000000 0.000000 384314588.789642	0.000000 0.000000 7118282.663635	0.000000 0.000000 18400256.046692	0.000000 0.000000 -16686683.420746	0.000000 0.000000 56475539.931641	0.000000 0.000000 884521.540710	0.000000 0.000000 15571661.091614	0.000000 0.000000 -7079415.493454	0.000000 0.000000 293991.673302	0.000000 0.000000 6081608.633392	0.000000 0.000000 -2728014.511780	0.000000 0.000000 -44605592.660110	0.000000 0.000000 -53282738.233704	0.000000 0.000000 43364777.990967	0.000000 0.000000 19146336.214508	0.000000 0.000000 -25568551.685486	0.000000 0.000000 34756168.222139	0.000000 0.000000 -11104941.222910	0.000000 0.000000 -1692372.440384	0.000000 0.000000 -25587028.393997	0.000000 0.000000 4302008.001579	0.000000 0.000000 -8026960.888214	0.000000 0.000000 -7261311.011902	0.000000 0.000000 261028.957359	0.000000 0.000000 -17645540.940567	0.000000 0.000000 -718006.365395	0.000000 0.000000 19584472.522903	0.000000 0.000000 -2290759.870224	0.000000 0.000000 -38677938.968445	0.000000 0.000000 -2665152.127243	0.000000 0.000000 -3256792.668388	0.000000 0.000000 -1591.773952	0.000000 0.000000 -148820745.911575	0.000000 0.000000 -13212965.855347	0.000000 0.000000 -19888294.809998	0.000000 0.000000 19917079.019684	0.000000 0.000000 -5429859.886536	0.000000 0.000000 -26410925.264164	0.000000 0.000000 -10831948.465210	0.000000 0.000000 9441311.799973	0.000000 0.000000 -5615323.729599	0.000000 0.000000 -51842484.769455	0.000000 0.000000 -415075.352386	0.000000 0.000000 188400589.583618	0.000000 0.000000 141929863.971436	0.000000 0.000000 -9338297.513107	0.000000 0.000000 -1554683.801903	0.000000 0.000000 -321236134.875610	0.000000 0.000000 -110697.545893	0.000000 0.000000 -23043192.327965	0.000000 0.000000 -25892243.426453	0.000000 0.000000 14137421.607155	0.000000 0.000000 30688518.937439	0.000000 0.000000 3769178.173370	0.000000 0.000000 -921159.175491	0.000000 0.000000 14013628.393749	0.000000 0.000000 22612000.360947	0.000000 0.000000 5017209.086792	0.000000 0.000000 -13737051.117737	0.000000 0.000000 -1153319.150478	0.000000 0.000000 -56471708.010864	0.000000 0.000000 155337652.642944	0.000000 0.000000 -3369586.202778	0.000000 0.000000 -13970178.813782	0.000000 0.000000 38150880.566040	0.000000 0.000000 -367910.301254	0.000000 0.000000 -65117424.184174	0.000000 0.000000 14336546.939392	0.000000 0.000000 48388869.197021	0.000000 0.000000 18402397.569733	0.000000 0.000000 -590849.562251	0.000000 0.000000 151542.749946	0.000000 0.000000 14535099.917358	0.000000 0.000000 -19631235.104156	0.000000 0.000000 -4778521.716553	0.000000 0.000000 -190183.310898	0.000000 0.000000 20949406.094116	0.000000 0.000000 -52879979.809814	0.000000 0.000000 4591785.793060	0.000000 0.000000 -30153846.252869	0.000000 0.000000 105650.697131	0.000000 0.000000 -34022519.329773	0.000000 0.000000 22037019.089363	0.000000 0.000000 -34356107.926437	0.000000 0.000000 3341561.410536	0.000000 0.000000 -11503291.993683	0.000000 0.000000 -16012174.369843	0.000000 0.000000 26921135.278610	0.000000 0.000000 -8211670.422852	0.000000 0.000000 -8053991.788422	0.000000 0.000000 -9947435.481201	0.000000 0.000000 6280678.900146	0.000000 0.000000 1612097.782837	0.000000 0.000000 -38659328.303146	0.000000 0.000000 -58579.298515	0.000000 0.000000 -5146113.156555	0.000000 0.000000 -569764.421509	0.000000 0.000000 -15589781.771805	0.000000 0.000000 -25139166.632034	0.000000 0.000000 -919630.265228	0.000000 0.000000 -24314213.017639	0.000000 0.000000 16139707.150436	0.000000 0.000000 -534824.084808	0.000000 0.000000 -11236367.981945	0.000000 0.000000 -45275627.992500	0.000000 0.000000 20101281.045654	0.000000 0.000000 11410854.854431	0.000000 0.000000 -3326098.626770	0.000000 0.000000 -175390.873351	0.000000 0.000000 2073974.425011	0.000000 0.000000 -1481418.682445	0.000000 0.000000 -2347133.666138	0.000000 0.000000 1396624.461859	0.000000 0.000000 -15373512.072601	0.000000 0.000000 3223634.590149	0.000000 0.000000 -30006412.914734	0.000000 0.000000 32689534.177185	0.000000 0.000000 -4587870.784027	0.000000 0.000000 1325359.026213	0.000000 0.000000 186100617.802216	0.000000 0.000000 -17019674.764755	0.000000 0.000000 -24943168.684967	0.000000 0.000000 -4293971.599159	
VECTORS acc float
0.000000 -9.800000 0.000000	0.000000 -9.800000 0.000000	0.000000 -9.800000 0.000000	0.000000 -9.800000 0.000000	0.000000 -9.800000 0.000000	0.000000 -9.800000 0.000000	0.000000 -9.800000 0.000000	0.000000 -9.800000 0.000000	0.000000 -9.800000 0.000000	0.000000 -9.800000 0.000000	0.000000 -9.800000 0.000000	0.000000 -9.800000 0.000000	0.000000 -9.800000 0.000000	0.000000 -9.800000 0.000000	0.000000 -9.800000 0.000000	0.000000 -9.800000 0.000000	0.000000 -9.800000 0.000000	0.000000 -9.800000 0.000000	0.000000 -9.800000 0.000000	0.000000 -9.800000 0.000000	0.000000 -9.800000 0.000000	0.000000 -9.800000 0.000000	0.000000 -9.800000 0.000000	0.000000 -9.800000 0.000000	0.000000 -9.800000 0.000000	0.000000 -9.800000 0.000000	0.000000 -9.800000 0.000000	0.000000 -9.800000 0.000000	0.000000 -9.800000 0.000000	0.000000 -9.800000 0.000000	0.000000 -9.800000 0.000000	0.000000 -9.800000 0.000000	0.000000 -9.800000 0.000000	0.000000 -9.800000 0.000000	0.000000 -9.800000 0.000000	0.000000 -9.800000 0.000000	0.000000 -9.800000 0.000000	0.000000 -9.800000 0.000000	0.000000 -9.800000 0.000000	0.000000 -9.800000 0.000000	0.000000 -9.800000 0.000000	0.000000 -9.800000 0.000000	0.000000 -9.800000 0.000000	0.000000 -9.800000 0.000000	0.000000 -9.800000 0.000000	0.000000 -9.800000 0.000000	0.000000 -9.800000 0.000000	0.000000 -9.800000 0.000000	0.000000 -9.800000 0.000000	0.000000 -9.800000 0.000000	0.000000 -9.800000 0.000000	0.000000 -9.800000 0.000000	0.000000 -9.800000 0.000000	0.000000 -9.800000 0.000000	0.000000 -9.800000 0.000000	0.000000 -9.800000 0.000000	0.000000 -9.800000 0.000000	0.000000 -9.800000 0.000000	0.000000 -9.800000 0.000000	0.000000 -9.800000 0.000000	0.000000 -9.800000 0.000000	0.000000 -9.800000 0.000000	0.000000 -9.800000 0.000000	0.000000 -9.800000 0.000000	0.000000 -9.800000 0.000000	0.000000 -9.800000 0.000000	0.000000 -9.800000 0.000000	0.000000 -9.800000 0.000000	0.000000 -9.800000 0.000000	0.000000 -9.800000 0.000000	0.000000 -9.800000 0.000000	0.000000 -9.800000 0.000000	0.000000 -9.800000 0.000000	0.000000 -9.800000 0.000000	0.000000 -9.800000 0.000000	0.000000 -9.800000 0.000000	0.000000 -9.800000 0.000000	0.000000 -9.800000 0.000000	0.000000 -9.800000 0.000000	0.000000 -9.800000 0.000000	0.000000 -9.800000 0.000000	0.000000 -9.800000 0.000000	0.000000 -9.800000 0.000000	0.000000 -9.800000 0.000000	0.000000 -9.800000 0.000000	0.000000 -9.800000 0.000000	0.000000 -9.800000 0.000000	0.000000 -9.800000 0.000000	0.000000 -9.800000 0.000000	0.000000 -9.800000 0.000000	-44.892272 -103.026811 0.000000	-3.046726 -14.848039 0.000000	0.481083 -13.532498 0.000000	-31.237539 -75.594264 0.000000	-39.613952 -146.621816 0.000000	3.526882 -31.470482 0.000000	-14.384082 -143.679542 0.000000	-22.121322 -80.098110 0.000000	-5.117207 -14.071252 0.000000	-33.704717 -127.282402 0.000000	-87.153181 -127.175299 0.000000	-72.842553 -194.402057 0.000000	47.327718 -110.294642 0.000000	-191.456641 -267.965235 0.000000	15.459063 -45.372412 0.000000	-112.652156 -196.162342 0.000000	-89.092136 -216.018191 0.000000	0.000000 -9.800000 0.000000	-6.795084 -86.954395 0.000000	-50.022620 -264.345675 0.000000	0.000000 -9.800000 0.000000	-0.078838 -234.484913 0.000000	-92.895175 -499.481569 0.000000	3.833195 -16.643562 0.000000	-54.543123 -88.587065 0.000000	13.457401 -319.768139 0.000000	-112.937336 -402.796119 0.000000	-105.447161 -283.297686 0.000000	-88.676738 -291.365584 0.000000	-47.684962 -54.150718 0.000000	-33.157154 -131.785046 0.000000	0.000000 -9.800000 0.000000	4.683553 -188.728756 0.000000	-123.686950 -328.820440 0.000000	-68.271489 -556.709954 0.000000	24.700696 -31.413270 0.000000	2.727300 -11.866904 0.000000	-155.297210 -587.103180 0.000000	117.467002 -350.520549 0.000000	-44.895247 -87.341667 0.000000	30.581624 -208.915093 0.000000	-2.051491 -241.003973 0.000000	-41.003784 -535.701907 0.000000	65.904495 -256.527121 0.000000	-114.234309 -260.433777 0.000000	50.134104 -138.310862 0.000000	-40.317434 -51.097175 0.000000	39.043975 -348.552803 0.000000	72.692359 -240.591698 0.000000	119.250661 -354.046569 0.000000	-101.439947 -127.304603 0.000000	61.193712 -203.633447 0.000000	-163.189413 -490.747141 0.000000	77.881495 -229.629090 0.000000	-106.684105 -90.919896 0.000000	409.564973 -381.017091 0.000000	-21.273027 -204.550501 0.000000	-5.857672 -17.606909 0.000000	240.919266 -482.345951 0.000000	-11.506327 -347.349407 0.000000	-25.406217 -129.411512 0.000000	-62.003173 -327.200114 0.000000	-36.710070 -140.978555 0.000000	0.000000 -9.800000 0.000000	34.427756 -70.814957 0.000000	258.305047 -321.715830 0.000000	-40.182199 -299.791740 0.000000	27.840831 -81.775930 0.000000	126.820771 -323.565588 0.000000	32.647854 -229.475388 0.000000	170.458598 -247.144279 0.000000	30.870808 -124.885674 0.000000	-17.175358 -116.773240 0.000000	29.910580 -208.716822 0.000000	38.127320 -39.048361 0.000000	19.002364 -94.929808 0.000000	-6.906863 -247.943284 0.000000	0.000000 -9.800000 0.000000	125.134549 -215.509096 0.000000	22.835245 -131.199339 0.000000	0.000000 -9.800000 0.000000	85.920850 -122.348081 0.000000	34.438329 -90.922789 0.000000	-1.904627 -22.031314 0.000000	54.371994 -80.022424 0.000000	25.461867 -41.682168 0.000000	12.240470 -35.852749 0.000000	0.000000 -9.800000 0.000000	0.000000 -9.800000 0.000000	0.000000 -9.800000 0.000000	0.000000 -9.800000 0.000000	0.000000 -9.800000 0.000000	0.000000 -9.800000 0.000000	0.000000 -9.800000 0.000000	0.000000 -9.800000 0.000000	0.000000 -9.800000 0.000000	0.000000 -9.800000 0.000000	0.000000 -9.800000 0.000000	0.000000 -9.800000 0.000000	0.000000 -9.800000 0.000000	0.000000 -9.800000 0.000000	0.000000 -9.800000 0.000000	0.000000 -9.800000 0.000000	0.000000 -9.800000 0.000000	0.000000 -9.800000 0.000000	0.000000 -9.800000 0.000000	0.000000 -9.800000 0.000000	0.000000 -9.800000 0.000000	0.000000 -9.800000 0.000000	0.000000 -9.800000 0.000000	0.000000 -9.800000 0.000000	0.000000 -9.800000 0.000000	0.000000 -9.800000 0.000000	0.000000 -9.800000 0.000000	0.000000 -9.800000 0.000000	0.000000 -9.800000 0.000000	0.000000 -9.800000 0.000000	0.000000 -9.800000 0.000000	0.000000 -9.800000 0.000000	0.000000 -9.800000 0.000000	0.000000 -9.800000 0.000000	0.000000 -9.800000 0.000000	0.000000 -9.800000 0.000000	0.000000 -9.800000 0.000000	0.000000 -9.800000 0.000000	0.000000 -9.800000 0.000000	0.000000 -9.800000 0.000000	0.000000 -9.800000 0.000000	0.000000 -9.800000 0.000000	0.000000 -9.800000 0.000000	0.000000 -9.800000 0.000000	0.000000 -9.800000 0.000000	0.013433 -0.019098 0.000000	-0.003018 0.018433 0.000000	-0.001558 -0.011359 0.000000	-0.026678 0.014929 0.000000	-0.022302 -0.013915 0.000000	-0.004376 0.008070 0.000000	-0.004552 0.008386 0.000000	0.005635 -0.001972 0.000000	0.002878 0.015019 0.000000	-0.005918 -0.001749 0.000000	-0.030035 0.009439 0.000000	-0.012316 0.028346 0.000000	0.014400 -0.004549 0.000000	-0.023932 -0.030173 0.000000	0.006264 0.016103 0.000000	-0.006868 0.014276 0.000000	0.007804 0.016646 0.000000	-0.016726 -0.021074 0.000000	-0.001801 -0.005772 0.000000	0.021210 0.019274 0.000000	-0.010669 -0.011514 0.000000	-0.015784 -0.007107 0.000000	0.001992 0.001709 0.000000	0.007776 -0.006753 0.000000	0.008553 0.009700 0.000000	-0.001954 0.000184 0.000000	-0.008220 0.001280 0.000000	0.017794 -0.019874 0.000000	0.002093 0.010518 0.000000	0.020433 0.017963 0.000000	-0.004589 -0.017708 0.000000	0.007049 -0.008837 0.000000	-0.000708 0.012030 0.000000	-0.031786 -0.021333 0.000000	-0.015006 -0.000481 0.000000	0.019175 -0.019181 0.000000	0.046944 -0.020289 0.000000	0.011230 -0.014403 0.000000	-0.004705 -0.002478 0.000000	-0.004644 0.001013 0.000000	0.009463 0.013695 0.000000	-0.011909 -0.019334 0.000000	0.021709 -0.016879 0.000000	-0.027200 -0.011097 0.000000	-0.016930 -0.013181 0.000000	0.003743 0.001142 0.000000	0.007059 -0.005200 0.000000	0.010241 0.008939 0.000000	-0.008664 0.012707 0.000000	0.000426 -0.000479 0.000000	0.008845 0.018800 0.000000	-0.025283 -0.036777 0.000000	0.016852 -0.012855 0.000000	0.034486 0.013555 0.000000	-0.008959 -0.007620 0.000000	0.000553 -0.002477 0.000000	0.021690 -0.003794 0.000000	0.014184 -0.019817 0.000000	-0.004640 -0.022001 0.000000	-0.026695 0.013644 0.000000	0.013203 -0.001212 0.000000	-0.000216 -0.004280 0.000000	-0.004620 -0.002541 0.000000	0.026652 0.018626 0.000000	0.014502 -0.004112 0.000000	0.000738 0.003541 0.000000	-0.006912 -0.004782 0.000000	-0.037082 0.007337 0.000000	-0.002390 0.010876 0.000000	0.006173 -0.002726 0.000000	0.017834 0.017895 0.000000	-0.010820 -0.019351 0.000000	-0.007514 -0.011474 0.000000	0.012236 0.000368 0.000000	-0.003080 -0.004239 0.000000	0.023124 0.006775 0.000000	0.002328 0.003137 0.000000	-0.003930 0.025258 0.000000	0.008004 -0.009891 0.000000	-0.000934 -0.014716 0.000000	0.001579 -0.002069 0.000000	0.010783 0.017937 0.000000	-0.007993 0.026397 0.000000	0.016506 0.025132 0.000000	-0.010189 0.013588 0.000000	0.011270 0.011023 0.000000	-0.003772 0.000539 0.000000	0.002767 0.007261 0.000000	0.001655 0.012196 0.000000	-0.022054 -0.008038 0.000000	-0.002503 0.003377 0.000000	0.010256 -0.001814 0.000000	-0.008132 0.019541 0.000000	0.024862 0.011095 0.000000	0.023986 0.009386 0.000000	-0.019167 0.015864 0.000000	-0.011094 0.023683 0.000000	0.017685 -0.011762 0.000000	0.011490 -0.006645 0.000000	0.005294 -0.004780 0.000000	0.018668 -7.713794 0.000000	-0.016194 -7.686186 0.000000	-0.009496 -7.698717 0.000000	-0.004397 -7.680846 0.000000	-0.000208 -7.682176 0.000000	-0.015438 -7.658879 0.000000	-0.003651 -7.683795 0.000000	-0.033211 -7.655495 0.000000	-0.003938 -7.686608 0.000000	0.003446 -7.680474 0.000000	0.003477 -7.683028 0.000000	-0.002554 -7.682526 0.000000	0.008983 -7.662060 0.000000	-0.007022 -7.680515 0.000000	-0.000008 -7.682933 0.000000	0.002420 -7.681319 0.000000	0.000091 -7.682907 0.000000	-0.006296 -7.682735 0.000000	0.004709 -7.710557 0.000000	0.003207 -7.678029 0.000000	0.021243 -7.673858 0.000000	0.006416 -7.684223 0.000000	-0.026089 -7.669007 0.000000	-0.004605 -7.681622 0.000000	0.016278 -7.693736 0.000000	-0.003547 -7.688231 0.000000	0.011594 -7.693105 0.000000	-0.019394 -7.621614 0.000000	0.004369 -7.683920 0.000000	-0.001263 -7.676559 0.000000	-0.001425 -7.681744 0.000000	0.018698 -7.653681 0.000000	0.027875 -7.656961 0.000000	0.085182 -7.697003 0.000000	0.055759 -7.661129 0.000000	0.002235 -7.645713 0.000000	0.014400 -7.638127 0.000000	0.023048 -7.699680 0.000000	-0.024826 -7.688880 0.000000	-0.002643 -7.687635 0.000000	0.004661 -7.680415 0.000000	-0.007975 -7.688829 0.000000	-0.003285 -7.688067 0.000000	0.000000 -7.683490 0.000000	0.002825 -7.688911 0.000000	0.018689 -7.679202 0.000000	-0.002906 -7.692083 0.000000	-0.037399 -7.647346 0.000000	0.001926 -7.684778 0.000000	-0.039495 -7.688506 0.000000	0.006257 -7.685369 0.000000	-0.001346 -7.692439 0.000000	-0.003804 -7.684522 0.000000	-0.007422 -7.696275 0.000000	-0.031938 -7.694537 0.000000	-0.000037 -7.683169 0.000000	0.054500 -7.644080 0.000000	0.004811 -7.681060 0.000000	0.017678 -7.648183 0.000000	-0.000092 -7.687727 0.000000	-0.001881 -7.685449 0.000000	-0.019154 -7.662725 0.000000	-0.034922 -7.692505 0.000000	0.004558 -7.688482 0.000000	0.004972 -7.679389 0.000000	-0.001092 -7.681849 0.000000	0.021842 -7.659809 0.000000	-0.003240 -7.683670 0.000000	-0.002089 -7.699554 0.000000	-0.001455 -7.678155 0.000000	0.038828 -7.691122 0.000000	0.000617 -7.683402 0.000000	-0.000107 -7.683291 0.000000	-0.000526 -7.676470 0.000000	0.005288 -7.680023 0.000000	-0.022827 -7.702572 0.000000	0.012391 -7.678846 0.000000	-0.017563 -7.685383 0.000000	-0.040164 -7.661445 0.000000	-0.030215 -7.672167 0.000000	-0.005823 -7.684110 0.000000	-0.016202 -7.663965 0.000000	0.001753 -7.686290 0.000000	0.002571 -7.684309 0.000000	-0.003093 -7.684918 0.000000	0.000865 -7.683614 0.000000	-0.058323 -7.709506 0.000000	-0.000154 -7.683017 0.000000	0.012605 -7.670290 0.000000	-0.012070 -7.731268 0.000000	-0.008537 -7.696788 0.000000	-0.000114 -7.677711 0.000000	0.010043 -7.697408 0.000000	-0.040098 -7.692506 0.000000	-0.025616 -7.713787 0.000000	0.025265 -7.709042 0.000000	-0.001693 -7.679481 0.000000	-0.003071 -7.683897 0.000000	0.009627 -7.702388 0.000000	0.021045 -7.655249 0.000000	0.004677 -0.001672 0.000000	0.002379 -0.015545 0.000000	0.000747 -0.000853 0.000000	-0.005996 -0.001717 0.000000	-0.005883 0.001670 0.000000	-0.001573 -0.000201 0.000000	-0.008818 0.010473 0.000000	0.002902 -0.002888 0.000000	0.002446 -0.002117 0.000000	-0.002961 -0.010311 0.000000	0.004514 -0.008221 0.000000	0.001606 0.000065 0.000000	0.004929 -0.013585 0.000000	-0.001190 0.003220 0.000000	0.003315 -0.012258 0.000000	0.011587 0.000062 0.000000	0.005441 0.034149 0.000000	-0.022718 -0.021841 0.000000	0.004721 0.005542 0.000000	0.026365 -0.004809 0.000000	0.005508 -0.002975 0.000000	-0.042352 -0.007443 0.000000	-0.008351 -0.028891 0.000000	-0.001215 0.002152 0.000000	-0.002253 0.000608 0.000000	-0.003483 -0.000838 0.000000	-0.014346 0.001262 0.000000	-0.001848 -0.001202 0.000000	0.004150 -0.015464 0.000000	-0.011475 -0.003915 0.000000	-0.000436 0.000456 0.000000	-0.000887 -0.002632 0.000000	0.000369 0.002023 0.000000	-0.002753 -0.000639 0.000000	0.011766 0.018880 0.000000	0.002462 0.015714 0.000000	0.012097 -0.002475 0.000000	-0.001782 0.001696 0.000000	-0.000682 -0.008550 0.000000	-0.015603 0.007126 0.000000	-0.012758 -0.005086 0.000000	-0.003436 -0.000145 0.000000	0.002244 -0.021775 0.000000	0.002397 0.001721 0.000000	0.009178 0.017341 0.000000	-0.007462 -0.017890 0.000000	-0.000895 -0.000676 0.000000	0.008763 0.009239 0.000000	-0.001533 -0.005955 0.000000	-0.000902 -0.002473 0.000000	-0.016229 0.021165 0.000000	0.001222 -0.012831 0.000000	-0.002391 -0.000172 0.000000	0.017857 0.004329 0.000000	-0.008624 0.000157 0.000000	-0.000421 -0.000328 0.000000	-0.012758 0.006426 0.000000	-0.005181 0.011871 0.000000	0.005637 0.026795 0.000000	-0.000172 -0.000584 0.000000	0.015791 0.020803 0.000000	-0.000074 -0.003347 0.000000	0.003692 0.001098 0.000000	-0.003948 0.000401 0.000000	0.000781 0.000169 0.000000	-0.021925 -0.005614 0.000000	0.017038 -0.001288 0.000000	-0.009580 -0.013150 0.000000	-0.000471 -0.016953 0.000000	0.000703 0.001553 0.000000	0.015225 0.008216 0.000000	-0.018380 -0.011550 0.000000	0.003496 0.015344 0.000000	0.002990 -0.001786 0.000000	-0.007034 -0.007009 0.000000	-0.003901 -0.002283 0.000000	-0.008981 -0.015556 0.000000	-0.012733 -0.022924 0.000000	0.001557 -0.000071 0.000000	-0.012409 0.023375 0.000000	0.006609 -0.018905 0.000000	0.001979 -0.001644 0.000000	0.000016 -0.004860 0.000000	0.002123 0.000293 0.000000	0.013896 0.010379 0.000000	0.000637 -0.005847 0.000000	0.006626 0.002442 0.000000	-0.004440 -0.015095 0.000000	-0.002244 0.002464 0.000000	0.004727 0.000280 0.000000	-0.006949 0.012120 0.000000	0.006434 -0.002463 0.000000	0.004627 -0.005212 0.000000	-0.009179 -0.004106 0.000000	-0.004230 0.001391 0.000000	0.002066 -0.019412 0.000000	0.000777 0.007071 0.000000	-0.002863 0.013430 0.000000	0.009777 0.019346 0.000000	-0.024412 -0.002451 0.000000	-0.009474 -7.684401 0.000000	0.000582 -7.683277 0.000000	-0.029291 -7.690585 0.000000	-0.017213 -7.665564 0.000000	0.001607 -7.681384 0.000000	-0.008599 -7.692985 0.000000	-0.005393 -7.682171 0.000000	-0.001506 -7.677765 0.000000	-0.054134 -7.722053 0.000000	-0.019500 -7.707789 0.000000	-0.013036 -7.662086 0.000000	-0.038812 -7.721809 0.000000	-0.003600 -7.683661 0.000000	0.001297 -7.687597 0.000000	-0.002785 -7.682724 0.000000	0.008334 -7.679034 0.000000	-0.017428 -7.660006 0.000000	-0.000107 -7.682890 0.000000	0.000004 -7.683614 0.000000	0.000033 -7.717797 0.000000	0.016783 -7.670978 0.000000	-0.010054 -7.681777 0.000000	-0.004052 -7.683013 0.000000	0.000197 -7.682920 0.000000	0.000061 -7.683383 0.000000	0.004298 -7.683128 0.000000	-0.002235 -7.683246 0.000000	-0.004464 -7.679638 0.000000	0.000533 -7.680379 0.000000	-0.002829 -7.684939 0.000000	-0.001052 -7.685418 0.000000	-0.009096 -7.689392 0.000000	-0.037958 -7.651077 0.000000	-0.000275 -7.683080 0.000000	-0.010149 -7.656048 0.000000	-0.002067 -7.685683 0.000000	0.003959 -7.678067 0.000000	0.000061 -7.682994 0.000000	-0.000170 -7.683263 0.000000	0.031544 -7.661452 0.000000	0.001146 -7.683547 0.000000	0.001448 -7.679639 0.000000	-0.000037 -7.666526 0.000000	0.000670 -7.685102 0.000000	-0.000299 -7.683854 0.000000	-0.000515 -7.688008 0.000000	0.009218 -7.682511 0.000000	-0.010805 -7.643220 0.000000	-0.003706 -7.682463 0.000000	-0.000007 -7.682614 0.000000	0.000736 -7.675144 0.000000	-0.001680 -7.681962 0.000000	0.013571 -7.638943 0.000000	-0.002886 -7.683723 0.000000	0.007440 -7.684620 0.000000	-0.000484 -7.707659 0.000000	-0.009291 -7.683630 0.000000	-0.000019 -7.683236 0.000000	-0.003499 -7.664602 0.000000	0.003672 -7.682441 0.000000	0.037115 -7.710845 0.000000	0.009601 -7.676697 0.000000	0.009376 -7.681727 0.000000	0.004194 -7.685408 0.000000	0.001550 -7.685003 0.000000	-0.002237 -7.684716 0.000000	-0.064023 -7.717357 0.000000	0.001691 -7.681513 0.000000	-0.001638 -7.690431 0.000000	-0.001243 -7.677161 0.000000	0.011892 -7.684515 0.000000	-0.002256 -7.686337 0.000000	0.011456 -7.678349 0.000000	-0.001433 -7.682447 0.000000	0.010382 -7.688398 0.000000	0.002946 -7.687267 0.000000	-0.001424 -7.683450 0.000000	0.003405 -7.683161 0.000000	-0.002934 -7.685551 0.000000	0.000823 -7.684419 0.000000	0.000095 -7.684021 0.000000	-0.006391 -7.681128 0.000000	-0.000468 -7.683206 0.000000	-0.022612 -7.699399 0.000000	-0.004551 -7.683070 0.000000	0.000797 -7.681639 0.000000	-0.000616 -7.680489 0.000000	0.003782 -7.711359 0.000000	0.005534 -7.706620 0.000000	0.048156 -7.633217 0.000000	-0.000449 -7.684996 0.000000	-0.001019 -7.683070 0.000000	-0.007864 -7.681400 0.000000	-0.005971 -7.736492 0.000000	-0.013751 -7.676881 0.000000	0.001491 -7.679397 0.000000	0.000410 -7.683311 0.000000	-0.000326 -7.685774 0.000000	0.000114 -7.685438 0.000000	0.004384 -7.686155 0.000000	-0.009772 0.028456 0.000000	0.003905 0.000064 0.000000	-0.000655 -0.002243 0.000000	0.005437 0.001043 0.000000	0.007024 -0.024453 0.000000	-0.000248 0.002489 0.000000	-0.006365 -0.003304 0.000000	0.022359 0.007627 0.000000	0.016148 -0.007815 0.000000	0.001995 -0.002544 0.000000	-0.002954 -0.003319 0.000000	-0.001353 -0.000815 0.000000	-0.004785 0.000789 0.000000	-0.000424 0.001298 0.000000	0.004153 -0.011954 0.000000	0.004697 -0.001772 0.000000	-0.000768 0.000388 0.000000	-0.020348 0.000188 0.000000	0.007312 -0.015383 0.000000	-0.021604 0.005930 0.000000	0.004475 0.001006 0.000000	-0.002147 0.000385 0.000000	-0.005739 -0.001916 0.000000	0.002945 0.000269 0.000000	0.003954 -0.009287 0.000000	-0.004769 0.001736 0.000000	-0.000991 -0.001390 0.000000	0.005271 -0.002540 0.000000	-0.006115 -0.004402 0.000000	-0.005700 -0.001633 0.000000	-0.000279 -0.002286 0.000000	0.000541 0.000939 0.000000	-0.000261 -0.001593 0.000000	-0.007635 0.026476 0.000000	0.001977 0.001029 0.000000	0.004648 -0.000098 0.000000	0.000703 -0.000901 0.000000	0.002328 -0.013641 0.000000	-0.018673 -0.011539 0.000000	0.003086 -0.000577 0.000000	0.002301 0.001084 0.000000	0.021357 0.001741 0.000000	-0.002899 -0.004326 0.000000	0.001401 -0.001562 0.000000	-0.000469 0.001037 0.000000	-0.009739 0.022956 0.000000	0.002741 0.001156 0.000000	0.001702 -0.000965 0.000000	-0.000566 0.000260 0.000000	0.006617 0.006969 0.000000	-0.000612 0.001188 0.000000	-0.001952 -0.000280 0.000000	-0.000805 0.005519 0.000000	0.000549 0.001356 0.000000	0.000883 0.003845 0.000000	0.001013 0.002036 0.000000	-0.000384 -0.002277 0.000000	-0.008915 0.013477 0.000000	0.000267 0.001178 0.000000	0.000841 -0.002069 0.000000	0.014681 -0.008835 0.000000	-0.002332 0.002770 0.000000	0.022797 -0.005705 0.000000	-0.001184 0.004459 0.000000	-0.000314 0.001189 0.000000	0.000349 -0.000824 0.000000	0.000483 -0.001493 0.000000	0.001658 -0.000269 0.000000	-0.007797 -0.009510 0.000000	0.000104 0.001324 0.000000	-0.001313 -0.002751 0.000000	0.001623 0.000350 0.000000	-0.000785 -0.000058 0.000000	-0.008872 -0.000964 0.000000	0.016640 -0.005430 0.000000	-0.003516 0.002980 0.000000	-0.000852 0.000572 0.000000	-0.000811 -0.009734 0.000000	0.000421 0.003050 0.000000	0.003154 0.000051 0.000000	0.005005 0.004275 0.000000	0.008499 -0.006106 0.000000	-0.000779 0.003179 0.000000	-20.149137 27.274400 0.000000	0.012594 0.011733 0.000000	-0.001770 -0.002262 0.000000	0.017540 0.021586 0.000000	-0.001439 -0.001011 0.000000	-0.001040 -0.001752 0.000000	0.001869 0.000357 0.000000	0.002136 0.002672 0.000000	0.000454 0.002437 0.000000	-0.011242 -0.015662 0.000000	0.000169 0.000172 0.000000	-0.000240 0.027298 0.000000	0.005211 0.005228 0.000000	0.021846 0.010600 0.000000	0.005524 0.000755 0.000000	-0.001448 -0.000352 0.000000	0.006561 -0.011682 0.000000	-0.001309 -7.682961 0.000000	-0.000657 -7.683480 0.000000	0.006040 -7.690109 0.000000	0.005448 -7.685277 0.000000	-0.005615 -7.678603 0.000000	-0.001767 -7.685598 0.000000	0.004740 -7.680795 0.000000	-0.001449 -7.681292 0.000000	0.000761 -7.684928 0.000000	0.000245 -7.683021 0.000000	-0.023366 -7.712337 0.000000	0.035412 -7.669328 0.000000	-0.005621 -7.683015 0.000000	-0.027762 -7.675165 0.000000	0.007464 -7.683989 0.000000	0.000459 -7.682332 0.000000	-0.005415 -7.680081 0.000000	-0.013747 -7.669498 0.000000	0.004027 -7.677022 0.000000	0.005472 -7.682232 0.000000	-0.003894 -7.679254 0.000000	0.003824 -7.683293 0.000000	-0.003451 -7.682571 0.000000	-0.002232 -7.683302 0.000000	-0.009785 -7.704133 0.000000	-0.000060 -7.684854 0.000000	-0.002208 -7.680017 0.000000	0.000000 -7.683127 0.000000	-0.000090 -7.680787 0.000000	0.001632 -7.686223 0.000000	0.005953 -7.680979 0.000000	0.002676 -7.681085 0.000000	0.008108 -7.680994 0.000000	0.000502 -7.683730 0.000000	0.001066 -7.683021 0.000000	0.001849 -7.685792 0.000000	0.022677 -7.645151 0.000000	-0.000235 -7.683130 0.000000	0.000201 -7.683152 0.000000	-0.000856 -7.683043 0.000000	0.000359 -7.683246 0.000000	0.001385 -7.679807 0.000000	-0.005596 -7.681027 0.000000	-0.000232 -7.680173 0.000000	0.000141 -7.683270 0.000000	0.005584 -7.685881 0.000000	0.000098 -7.680816 0.000000	0.000266 -7.678380 0.000000	-0.001617 -7.680399 0.000000	0.000183 -7.683056 0.000000	0.001149 -7.682825 0.000000	-0.004732 -7.684975 0.000000	34.832912 -54.836621 0.000000	0.031974 -7.691241 0.000000	0.000919 -7.684753 0.000000	0.001827 -7.678946 0.000000	0.016780 -7.692681 0.000000	0.002220 -7.682030 0.000000	0.000572 -7.682110 0.000000	-0.000241 -7.682789 0.000000	-0.006097 -7.672057 0.000000	0.001070 -7.677910 0.000000	0.000637 -7.684684 0.000000	-0.004064 -7.684834 0.000000	-0.003049 -7.679842 0.000000	-0.000032 -7.683413 0.000000	-0.010927 -7.678780 0.000000	0.002437 -7.691723 0.000000	-0.000293 -7.683475 0.000000	-0.000789 -7.678310 0.000000	0.000164 -7.683384 0.000000	-0.001847 -7.683099 0.000000	-0.023634 -7.673786 0.000000	0.003565 -7.688877 0.000000	0.000453 -7.681937 0.000000	0.000100 -7.683140 0.000000	0.000454 -7.687117 0.000000	-0.000181 -7.683627 0.000000	0.017818 -7.739933 0.000000	-0.003589 -7.681476 0.000000	-0.003475 -7.685555 0.000000	0.004253 -7.679899 0.000000	-0.000143 -7.683176 0.000000	-0.005817 -7.683386 0.000000	-0.000767 -7.683088 0.000000	0.000138 -7.684036 0.000000	-0.000005 -7.682935 0.000000	-0.003135 -7.693363 0.000000	0.001046 -7.683040 0.000000	-0.000116 -7.683305 0.000000	-0.001669 -7.681735 0.000000	0.025726 -7.712148 0.000000	-0.002138 -7.679881 0.000000	-0.001887 -7.689274 0.000000	-0.000320 -7.680694 0.000000	-0.001155 -7.650248 0.000000	-0.000184 -7.683183 0.000000	0.003659 -7.684773 0.000000	-0.000104 -7.682749 0.000000	-0.013157 -7.642595 0.000000	-0.001404 -0.002053 0.000000	-0.000336 -0.000845 0.000000	-0.002272 -0.001657 0.000000	0.000223 -0.001630 0.000000	-0.001260 -0.000968 0.000000	-0.003428 -0.001688 0.000000	-0.001992 0.000286 0.000000	0.004576 -0.000992 0.000000	0.000358 -0.000802 0.000000	-0.000419 -0.001972 0.000000	-0.000904 -0.001298 0.000000	-0.000635 0.000960 0.000000	-0.000395 -0.001107 0.000000	-0.000440 -0.001727 0.000000	0.000054 0.001890 0.000000	0.004347 -0.007951 0.000000	-0.001606 0.000712 0.000000	0.000170 0.000599 0.000000	0.001518 0.001434 0.000000	-0.000969 0.002474 0.000000	0.001182 0.000683 0.000000	-0.001412 -0.000045 0.000000	-0.000399 0.000130 0.000000	0.001649 -0.000254 0.000000	-0.000747 -0.001620 0.000000	0.000782 0.001792 0.000000	0.001495 0.002543 0.000000	0.000890 -0.000155 0.000000	0.001838 0.003403 0.000000	-0.002492 0.000355 0.000000	-0.001722 0.000861 0.000000	-0.001738 0.001369 0.000000	0.004110 0.000992 0.000000	0.001856 0.001016 0.000000	0.003289 0.000239 0.000000	0.000911 0.001538 0.000000	-0.001924 -0.001844 0.000000	-0.000874 -0.002491 0.000000	0.004592 -0.000949 0.000000	-0.000529 -0.001251 0.000000	0.000294 -0.001901 0.000000	0.002204 0.003738 0.000000	0.000499 0.002095 0.000000	0.001634 -0.001436 0.000000	0.001556 -0.002830 0.000000	0.000502 0.005138 0.000000	0.002018 0.000605 0.000000	-0.001627 0.001020 0.000000	-0.004105 -0.022116 0.000000	-0.000103 -0.002882 0.000000	0.000126 -0.001190 0.000000	-0.000441 0.000131 0.000000	0.002182 0.002288 0.000000	-0.007255 -0.001545 0.000000	-0.000097 -0.000474 0.000000	-0.000067 -0.000920 0.000000	-0.001320 0.000114 0.000000	0.001590 0.005556 0.000000	0.000570 -0.002237 0.000000	0.000329 -0.000631 0.000000	-0.001111 0.000008 0.000000	-0.002296 0.002665 0.000000	-0.000947 -0.000223 0.000000	-0.000290 -0.003547 0.000000	-0.004476 -0.001075 0.000000	-0.000235 0.003440 0.000000	-0.000098 0.000032 0.000000	0.000338 -0.002423 0.000000	-0.019666 0.024986 0.000000	-0.001665 -0.002309 0.000000	-0.002880 -0.001675 0.000000	0.005375 0.003717 0.000000	0.000251 0.000924 0.000000	0.000554 -0.001189 0.000000	-0.001799 0.003415 0.000000	-0.000004 0.000401 0.000000	0.000656 0.001574 0.000000	0.002552 -0.000589 0.000000	0.007601 -0.009721 0.000000	0.003476 -0.004832 0.000000	0.000232 -0.003018 0.000000	-0.005992 -0.011145 0.000000	0.001224 0.000906 0.000000	0.004560 0.001282 0.000000	-0.000459 0.000258 0.000000	-0.000857 0.000238 0.000000	0.000176 0.001651 0.000000	-0.000208 -0.001750 0.000000	-0.001033 0.001203 0.000000	0.002668 -0.000988 0.000000	0.003661 -0.000378 0.000000	0.000048 0.000751 0.000000	-0.002198 -0.002074 0.000000	-0.000216 0.000708 0.000000	-0.002635 0.000137 0.000000	-0.004654 -0.003368 0.000000	-0.000397 -0.000950 0.000000	0.000064 0.002000 0.000000	-0.001409 -0.001618 0.000000	-0.000775 -0.000742 0.000000	-0.000054 -7.683505 0.000000	-0.001193 -7.683059 0.000000	-0.000090 -7.683288 0.000000	0.004538 -7.684780 0.000000	0.000096 -7.683426 0.000000	-0.001759 -7.683056 0.000000	0.000328 -7.682998 0.000000	-0.001732 -7.681872 0.000000	-0.000003 -7.683409 0.000000	0.051179 -7.661811 0.000000	-0.004639 -7.682774 0.000000	-0.008415 -7.686220 0.000000	-0.000111 -7.684857 0.000000	-0.002121 -7.680232 0.000000	0.000509 -7.683394 0.000000	0.000363 -7.684202 0.000000	-0.002880 -7.683929 0.000000	0.002936 -7.682912 0.000000	0.006549 -7.684999 0.000000	-0.002702 -7.682528 0.000000	0.013225 -7.684371 0.000000	-0.000538 -7.686124 0.000000	0.000692 -7.682748 0.000000	-0.000466 -7.683715 0.000000	-0.011890 -7.670859 0.000000	0.000272 -7.682989 0.000000	-0.000726 -7.680768 0.000000	0.010605 -7.683921 0.000000	0.000142 -7.682848 0.000000	-0.001905 -7.686069 0.000000	0.000879 -7.682949 0.000000	0.001221 -7.683354 0.000000	-0.000223 -7.681850 0.000000	-0.003460 -7.688057 0.000000	-0.005699 -7.685147 0.000000	0.000557 -7.681505 0.000000	0.000438 -7.682951 0.000000	-0.008987 -7.682138 0.000000	0.002508 -7.689221 0.000000	0.000027 -7.683288 0.000000	0.001124 -7.684467 0.000000	-0.003642 -7.686652 0.000000	0.000048 -7.683198 0.000000	0.003718 -7.681483 0.000000	0.001291 -7.681475 0.000000	-0.003558 -7.680554 0.000000	0.000576 -7.688728 0.000000	-0.000743 -7.684028 0.000000	-0.000054 -7.682837 0.000000	0.002132 -7.683376 0.000000	-0.001661 -7.681117 0.000000	-0.001854 -7.683191 0.000000	-0.003570 -7.682428 0.000000	-0.000904 -7.679952 0.000000	0.001754 -7.682432 0.000000	-0.002463 -7.683106 0.000000	0.000974 -7.688435 0.000000	0.000468 -7.683107 0.000000	-0.006712 -7.688286 0.000000	0.008240 -7.686468 0.000000	0.000177 -7.683008 0.000000	-0.000085 -7.683171 0.000000	0.005038 -7.683589 0.000000	0.002283 -7.685952 0.000000	-0.000279 -7.679741 0.000000	0.002748 -7.679945 0.000000	0.003649 -7.678866 0.000000	-0.001861 -7.683478 0.000000	-0.000257 -7.683295 0.000000	0.001581 -7.682881 0.000000	-0.000915 -7.683010 0.000000	0.000337 -7.682978 0.000000	-0.001442 -7.682378 0.000000	-0.002665 -7.683014 0.000000	0.000959 -7.683712 0.000000	-0.001282 -7.681367 0.000000	-0.000018 -7.682917 0.000000	0.000374 -7.682479 0.000000	0.005688 -7.681900 0.000000	-0.000159 -7.683419 0.000000	0.000228 -7.682569 0.000000	0.003152 -7.683214 0.000000	-0.004237 -7.684854 0.000000	0.002588 -7.685505 0.000000	-0.004269 -7.678815 0.000000	-0.000031 -7.683313 0.000000	0.012307 -7.667699 0.000000	0.001181 -7.683456 0.000000	-0.000157 -7.683375 0.000000	-0.000144 -7.683030 0.000000	0.003302 -7.679001 0.000000	0.004830 -7.681374 0.000000	-0.003317 -7.689669 0.000000	0.003055 -7.681486 0.000000	-0.001289 -7.691340 0.000000	-0.000330 -7.683705 0.000000	0.004682 -7.680626 0.000000	0.000865 -7.683492 0.000000	0.000719 -7.682800 0.000000	-0.000179 -7.683197 0.000000	
VECTORS ang float
0.000000 0.000000 0.000000	0.000000 0.000000 0.000000	0.000000 0.000000 0.000000	0.000000 0.000000 0.000000	0.000000 0.000000 0.000000	0.000000 0.000000 0.000000	0.000000 0.000000 0.000000	0.000000 0.000000 0.000000	0.000000 0.000000 0.000000	0.000000 0.000000 0.000000	0.000000 0.000000 0.000000	0.000000 0.000000 0.000000	0.000000 0.000000 0.000000	0.000000 0.000000 0.000000	0.000000 0.000000 0.000000	0.000000 0.000000 0.000000	0.000000 0.000000 0.000000	0.000000 0.000000 0.000000	0.000000 0.000000 0.000000	0.000000 0.000000 0.000000	0.000000 0.000000 0.000000	0.000000 0.000000 0.000000	0.000000 0.000000 0.000000	0.000000 0.000000 0.000000	0.000000 0.000000 0.000000	0.000000 0.000000 0.000000	0.000000 0.000000 0.000000	0.000000 0.000000 0.000000	0.000000 0.000000 0.000000	0.000000 0.000000 0.000000	0.000000 0.000000 0.000000	0.000000 0.000000 0.000000	0.000000 0.000000 0.000000	0.000000 0.000000 0.000000	0.000000 0.000000 0.000000	0.000000 0.000000 0.000000	0.000000 0.000000 0.000000	0.000000 0.000000 0.000000	0.000000 0.000000 0.000000	0.000000 0.000000 0.000000	0.000000 0.000000 0.000000	0.000000 0.000000 0.000000	0.000000 0.000000 0.000000	0.000000 0.000000 0.000000	0.000000 0.000000 0.000000	0.000000 0.000000 0.000000	0.000000 0.000000 0.000000	0.000000 0.000000 0.000000	0.000000 0.000000 0.000000	0.000000 0.000000 0.000000	0.000000 0.000000 0.000000	0.000000 0.000000 0.000000	0.000000 0.000000 0.000000	0.000000 0.000000 0.000000	0.000000 0.000000 0.000000	0.000000 0.000000 0.000000	0.000000 0.000000 0.000000	0.000000 0.000000 0.000000	0.000000 0.000000 0.000000	0.000000 0.000000 0.000000	0.000000 0.000000 0.000000	0.000000 0.000000 0.000000	0.000000 0.000000 0.000000	0.000000 0.000000 0.000000	0.000000 0.000000 0.000000	0.000000 0.000000 0.000000	0.000000 0.000000 0.000000	0.000000 0.000000 0.000000	0.000000 0.000000 0.000000	0.000000 0.000000 0.000000	0.000000 0.000000 0.000000	0.000000 0.000000 0.000000	0.000000 0.000000 0.000000	0.000000 0.000000 0.000000	0.000000 0.000000 0.000000	0.000000 0.000000 0.000000	0.000000 0.000000 0.000000	0.000000 0.000000 0.000000	0.000000 0.000000 0.000000	0.000000 0.000000 0.000000	0.000000 0.000000 0.000000	0.000000 0.000000 0.000000	0.000000 0.000000 0.000000	0.000000 0.000000 0.000000	0.000000 0.000000 0.000000	0.000000 0.000000 0.000000	0.000000 0.000000 0.000000	0.000000 0.000000 0.000000	0.000000 0.000000 0.000000	0.000000 0.000000 0.000000	0.000000 0.000000 22.580908	0.000000 0.000000 -1.930536	0.000000 0.000000 -2.221933	0.000000 0.000000 -42.068551	0.000000 0.000000 29.365478	0.000000 0.000000 22.475032	0.000000 0.000000 89.078741	0.000000 0.000000 2.295959	0.000000 0.000000 5.634003	0.000000 0.000000 -49.711338	0.000000 0.000000 -0.500429	0.000000 0.000000 -22.986315	0.000000 0.000000 91.264592	0.000000 0.000000 88.378979	0.000000 0.000000 39.675775	0.000000 0.000000 113.579307	0.000000 0.000000 136.052067	0.000000 0.000000 0.000000	0.000000 0.000000 61.698107	0.000000 0.000000 -24.520448	0.000000 0.000000 0.000000	0.000000 0.000000 226.599262	0.000000 0.000000 -343.635307	0.000000 0.000000 -8.489287	0.000000 0.000000 -9.061124	0.000000 0.000000 -183.123889	0.000000 0.000000 -134.537961	0.000000 0.000000 235.792955	0.000000 0.000000 -10.388172	0.000000 0.000000 62.328249	0.000000 0.000000 -45.093400	0.000000 0.000000 0.000000	0.000000 0.000000 61.912413	0.000000 0.000000 -82.032320	0.000000 0.000000 -88.851377	0.000000 0.000000 -26.238745	0.000000 0.000000 -3.463185	0.000000 0.000000 -365.085227	0.000000 0.000000 183.070933	0.000000 0.000000 -46.994899	0.000000 0.000000 -58.189872	0.000000 0.000000 8.803788	0.000000 0.000000 198.028376	0.000000 0.000000 177.497576	0.000000 0.000000 1.498747	0.000000 0.000000 34.365188	0.000000 0.000000 27.927461	0.000000 0.000000 96.357151	0.000000 0.000000 108.587086	0.000000 0.000000 -342.424857	0.000000 0.000000 145.637202	0.000000 0.000000 93.486029	0.000000 0.000000 -174.956773	0.000000 0.000000 112.452325	0.000000 0.000000 92.187558	0.000000 0.000000 -366.069649	0.000000 0.000000 -27.241972	0.000000 0.000000 4.891365	0.000000 0.000000 -173.752426	0.000000 0.000000 27.657671	0.000000 0.000000 3.661072	0.000000 0.000000 42.223749	0.000000 0.000000 -105.969805	0.000000 0.000000 0.000000	0.000000 0.000000 -60.491141	0.000000 0.000000 -168.224606	0.000000 0.000000 -287.124953	0.000000 0.000000 26.623994	0.000000 0.000000 -332.658941	0.000000 0.000000 -201.640076	0.000000 0.000000 21.711191	0.000000 0.000000 -48.550153	0.000000 0.000000 -111.472931	0.000000 0.000000 188.620284	0.000000 0.000000 -48.421094	0.000000 0.000000 -31.553238	0.000000 0.000000 -189.050442	0.000000 0.000000 0.000000	0.000000 0.000000 -247.309924	0.000000 0.000000 -127.118340	0.000000 0.000000 0.000000	0.000000 0.000000 -125.239651	0.000000 0.000000 68.513067	0.000000 0.000000 -12.733083	0.000000 0.000000 -90.398241	0.000000 0.000000 -36.043031	0.000000 0.000000 -1.537349	0.000000 0.000000 0.000000	0.000000 0.000000 0.000000	0.000000 0.000000 0.000000	0.000000 0.000000 0.000000	0.000000 0.000000 0.000000	0.000000 0.000000 0.000000	0.000000 0.000000 0.000000	0.000000 0.000000 0.000000	0.000000 0.000000 0.000000	0.000000 0.000000 0.000000	0.000000 0.000000 0.000000	0.000000 0.000000 0.000000	0.000000 0.000000 0.000000	0.000000 0.000000 0.000000	0.000000 0.000000 0.000000	0.000000 0.000000 0.000000	0.000000 0.000000 0.000000	0.000000 0.000000 0.000000	0.000000 0.000000 0.000000	0.000000 0.000000 0.000000	0.000000 0.000000 0.000000	0.000000 0.000000 0.000000	0.000000 0.000000 0.000000	0.000000 0.000000 0.000000	0.000000 0.000000 0.000000	0.000000 0.000000 0.000000	0.000000 0.000000 0.000000	0.000000 0.000000 0.000000	0.000000 0.000000 0.000000	0.000000 0.000000 0.000000	0.000000 0.000000 0.000000	0.000000 0.000000 0.000000	0.000000 0.000000 0.000000	0.000000 0.000000 0.000000	0.000000 0.000000 0.000000	0.000000 0.000000 0.000000	0.000000 0.000000 0.000000	0.000000 0.000000 0.000000	0.000000 0.000000 0.000000	0.000000 0.000000 0.000000	0.000000 0.000000 0.000000	0.000000 0.000000 0.000000	0.000000 0.000000 0.000000	0.000000 0.000000 0.000000	0.000000 0.000000 0.000000	0.000000 0.000000 0.001014	0.000000 0.000000 0.004057	0.000000 0.000000 -0.006563	0.000000 0.000000 -0.000496	0.000000 0.000000 -0.005264	0.000000 0.000000 -0.001033	0.000000 0.000000 0.004671	0.000000 0.000000 0.000050	0.000000 0.000000 0.000638	0.000000 0.000000 -0.007704	0.000000 0.000000 -0.004416	0.000000 0.000000 -0.008076	0.000000 0.000000 0.004510	0.000000 0.000000 -0.004688	0.000000 0.000000 -0.003559	0.000000 0.000000 0.002057	0.000000 0.000000 -0.003474	0.000000 0.000000 -0.001523	0.000000 0.000000 0.001583	0.000000 0.000000 -0.002813	0.000000 0.000000 0.002583	0.000000 0.000000 -0.001447	0.000000 0.000000 -0.003454	0.000000 0.000000 0.002398	0.000000 0.000000 0.003717	0.000000 0.000000 0.004123	0.000000 0.000000 0.000527	0.000000 0.000000 -0.009376	0.000000 0.000000 -0.004657	0.000000 0.000000 0.000132	0.000000 0.000000 0.000410	0.000000 0.000000 -0.005864	0.000000 0.000000 -0.000558	0.000000 0.000000 0.002030	0.000000 0.000000 -0.000988	0.000000 0.000000 0.001551	0.000000 0.000000 0.000903	0.000000 0.000000 0.000805	0.000000 0.000000 0.002106	0.000000 0.000000 0.006311	0.000000 0.000000 -0.002535	0.000000 0.000000 0.010922	0.000000 0.000000 0.001224	0.000000 0.000000 -0.003921	0.000000 0.000000 -0.001152	0.000000 0.000000 0.004577	0.000000 0.000000 -0.006339	0.000000 0.000000 -0.003437	0.000000 0.000000 -0.008798	0.000000 0.000000 0.001209	0.000000 0.000000 -0.000830	0.000000 0.000000 -0.003180	0.000000 0.000000 -0.000117	0.000000 0.000000 0.003698	0.000000 0.000000 0.011741	0.000000 0.000000 0.001205	0.000000 0.000000 0.007544	0.000000 0.000000 0.006903	0.000000 0.000000 0.001907	0.000000 0.000000 0.000604	0.000000 0.000000 0.000854	0.000000 0.000000 -0.001249	0.000000 0.000000 0.003850	0.000000 0.000000 0.001652	0.000000 0.000000 -0.007397	0.000000 0.000000 0.000150	0.000000 0.000000 0.007300	0.000000 0.000000 -0.003618	0.000000 0.000000 -0.000021	0.000000 0.000000 -0.000410	0.000000 0.000000 -0.001770	0.000000 0.000000 -0.004643	0.000000 0.000000 -0.000324	0.000000 0.000000 -0.000315	0.000000 0.000000 -0.000740	0.000000 0.000000 -0.002618	0.000000 0.000000 0.006546	0.000000 0.000000 -0.001564	0.000000 0.000000 0.000094	0.000000 0.000000 0.006725	0.000000 0.000000 -0.000662	0.000000 0.000000 -0.001714	0.000000 0.000000 -0.008460	0.000000 0.000000 -0.004232	0.000000 0.000000 0.004290	0.000000 0.000000 0.010603	0.000000 0.000000 0.001124	0.000000 0.000000 0.000644	0.000000 0.000000 -0.001465	0.000000 0.000000 -0.003179	0.000000 0.000000 -0.003745	0.000000 0.000000 -0.010094	0.000000 0.000000 0.009216	0.000000 0.000000 -0.000812	0.000000 0.000000 0.004413	0.000000 0.000000 -0.005078	0.000000 0.000000 -0.005089	0.000000 0.000000 -0.006851	0.000000 0.000000 0.007243	0.000000 0.000000 -0.002805	0.000000 0.000000 -0.000217	0.000000 0.000000 -0.006346	0.000000 0.000000 -0.009279	0.000000 0.000000 0.001232	0.000000 0.000000 -0.000928	0.000000 0.000000 -0.004180	0.000000 0.000000 0.002463	0.000000 0.000000 0.002280	0.000000 0.000000 0.008162	0.000000 0.000000 0.000201	0.000000 0.000000 -0.005246	0.000000 0.000000 -0.002130	0.000000 0.000000 -0.011403	0.000000 0.000000 0.001348	0.000000 0.000000 -0.000005	0.000000 0.000000 0.000234	0.000000 0.000000 0.000040	0.000000 0.000000 -0.009932	0.000000 0.000000 -0.013330	0.000000 0.000000 -0.007232	0.000000 0.000000 -0.010906	0.000000 0.000000 -0.002110	0.000000 0.000000 -0.000807	0.000000 0.000000 -0.001165	0.000000 0.000000 0.003354	0.000000 0.000000 -0.000095	0.000000 0.000000 -0.009763	0.000000 0.000000 -0.000098	0.000000 0.000000 -0.000370	0.000000 0.000000 0.007003	0.000000 0.000000 -0.001328	0.000000 0.000000 -0.004021	0.000000 0.000000 -0.021893	0.000000 0.000000 0.011382	0.000000 0.000000 0.007169	0.000000 0.000000 -0.012763	0.000000 0.000000 -0.006475	0.000000 0.000000 0.006330	0.000000 0.000000 0.019844	0.000000 0.000000 0.003725	0.000000 0.000000 0.000498	0.000000 0.000000 0.003531	0.000000 0.000000 -0.000012	0.000000 0.000000 0.000000	0.000000 0.000000 -0.000457	0.000000 0.000000 -0.000512	0.000000 0.000000 0.016220	0.000000 0.000000 0.001146	0.000000 0.000000 -0.000875	0.000000 0.000000 0.002171	0.000000 0.000000 -0.000655	0.000000 0.000000 -0.000420	0.000000 0.000000 0.000423	0.000000 0.000000 -0.012876	0.000000 0.000000 0.010106	0.000000 0.000000 -0.000181	0.000000 0.000000 -0.000940	0.000000 0.000000 0.000605	0.000000 0.000000 0.008367	0.000000 0.000000 0.001337	0.000000 0.000000 0.014376	0.000000 0.000000 -0.003972	0.000000 0.000000 -0.002170	0.000000 0.000000 0.004933	0.000000 0.000000 0.001206	0.000000 0.000000 -0.002089	0.000000 0.000000 0.001833	0.000000 0.000000 -0.000372	0.000000 0.000000 -0.001324	0.000000 0.000000 -0.005029	0.000000 0.000000 -0.009998	0.000000 0.000000 0.000003	0.000000 0.000000 -0.000000	0.000000 0.000000 0.003631	0.000000 0.000000 -0.000786	0.000000 0.000000 0.011925	0.000000 0.000000 -0.002300	0.000000 0.000000 0.010445	0.000000 0.000000 -0.008566	0.000000 0.000000 0.010288	0.000000 0.000000 0.001559	0.000000 0.000000 0.001182	0.000000 0.000000 -0.001152	0.000000 0.000000 -0.003071	0.000000 0.000000 -0.002525	0.000000 0.000000 -0.001066	0.000000 0.000000 0.019822	0.000000 0.000000 0.000136	0.000000 0.000000 0.009434	0.000000 0.000000 -0.010754	0.000000 0.000000 0.002194	0.000000 0.000000 -0.004518	0.000000 0.000000 0.009716	0.000000 0.000000 -0.009870	0.000000 0.000000 -0.006626	0.000000 0.000000 0.001255	0.000000 0.000000 0.001052	0.000000 0.000000 -0.001026	0.000000 0.000000 -0.010238	0.000000 0.000000 -0.009113	0.000000 0.000000 0.001919	0.000000 0.000000 -0.003252	0.000000 0.000000 -0.000387	0.000000 0.000000 0.003034	0.000000 0.000000 0.000347	0.000000 0.000000 0.001018	0.000000 0.000000 0.002685	0.000000 0.000000 -0.007129	0.000000 0.000000 0.000478	0.000000 0.000000 -0.005498	0.000000 0.000000 -0.007421	0.000000 0.000000 -0.004643	0.000000 0.000000 -0.002595	0.000000 0.000000 -0.000811	0.000000 0.000000 0.005281	0.000000 0.000000 -0.002820	0.000000 0.000000 0.003336	0.000000 0.000000 -0.000284	0.000000 0.000000 -0.001700	0.000000 0.000000 0.000503	0.000000 0.000000 -0.007514	0.000000 0.000000 0.002021	0.000000 0.000000 -0.001139	0.000000 0.000000 -0.000250	0.000000 0.000000 -0.000139	0.000000 0.000000 0.004218	0.000000 0.000000 -0.000181	0.000000 0.000000 0.000543	0.000000 0.000000 0.003903	0.000000 0.000000 0.006064	0.000000 0.000000 -0.001986	0.000000 0.000000 0.000567	0.000000 0.000000 -0.000636	0.000000 0.000000 -0.002247	0.000000 0.000000 0.005356	0.000000 0.000000 -0.000570	0.000000 0.000000 -0.007354	0.000000 0.000000 0.000706	0.000000 0.000000 0.000067	0.000000 0.000000 -0.001637	0.000000 0.000000 -0.007941	0.000000 0.000000 -0.002049	0.000000 0.000000 0.001372	0.000000 0.000000 -0.001283	0.000000 0.000000 0.001988	0.000000 0.000000 -0.002272	0.000000 0.000000 -0.000589	0.000000 0.000000 -0.005470	0.000000 0.000000 0.006417	0.000000 0.000000 0.000088	0.000000 0.000000 -0.001917	0.000000 0.000000 0.000577	0.000000 0.000000 0.000151	0.000000 0.000000 0.000034	0.000000 0.000000 0.007585	0.000000 0.000000 0.000024	0.000000 0.000000 -0.000950	0.000000 0.000000 0.006764	0.000000 0.000000 -0.013838	0.000000 0.000000 -0.000417	0.000000 0.000000 -0.001140	0.000000 0.000000 0.000034	0.000000 0.000000 -0.003043	0.000000 0.000000 -0.002733	0.000000 0.000000 0.000059	0.000000 0.000000 0.009177	0.000000 0.000000 -0.004529	0.000000 0.000000 -0.004836	0.000000 0.000000 -0.000815	0.000000 0.000000 0.000707	0.000000 0.000000 -0.001586	0.000000 0.000000 0.003978	0.000000 0.000000 0.001088	0.000000 0.000000 0.000586	0.000000 0.000000 0.000703	0.000000 0.000000 -0.000811	0.000000 0.000000 0.008480	0.000000 0.000000 -0.002269	0.000000 0.000000 -0.000852	0.000000 0.000000 -0.010593	0.000000 0.000000 -0.001549	0.000000 0.000000 0.000165	0.000000 0.000000 0.000780	0.000000 0.000000 -0.000317	0.000000 0.000000 -0.002054	0.000000 0.000000 -0.002475	0.000000 0.000000 -0.003535	0.000000 0.000000 0.006586	0.000000 0.000000 0.002319	0.000000 0.000000 0.004316	0.000000 0.000000 0.001628	0.000000 0.000000 0.003764	0.000000 0.000000 -0.001331	0.000000 0.000000 -0.008817	0.000000 0.000000 0.001620	0.000000 0.000000 -0.000113	0.000000 0.000000 0.006848	0.000000 0.000000 0.000808	0.000000 0.000000 -0.002170	0.000000 0.000000 0.001094	0.000000 0.000000 0.001524	0.000000 0.000000 0.000058	0.000000 0.000000 -0.001653	0.000000 0.000000 0.004695	0.000000 0.000000 0.001188	0.000000 0.000000 -0.001967	0.000000 0.000000 -0.001699	0.000000 0.000000 -0.006310	0.000000 0.000000 -0.001033	0.000000 0.000000 -0.000167	0.000000 0.000000 0.010100	0.000000 0.000000 0.032558	0.000000 0.000000 0.003575	0.000000 0.000000 -0.000297	0.000000 0.000000 -0.000877	0.000000 0.000000 -0.001646	0.000000 0.000000 -0.007539	0.000000 0.000000 -0.000045	0.000000 0.000000 0.000086	0.000000 0.000000 0.008972	0.000000 0.000000 -0.003207	0.000000 0.000000 0.019157	0.000000 0.000000 0.002443	0.000000 0.000000 0.004630	0.000000 0.000000 0.000007	0.000000 0.000000 0.002054	0.000000 0.000000 -0.001007	0.000000 0.000000 -0.002332	0.000000 0.000000 0.001039	0.000000 0.000000 -0.000463	0.000000 0.000000 -0.000687	0.000000 0.000000 -0.003443	0.000000 0.000000 -0.004373	0.000000 0.000000 0.000108	0.000000 0.000000 0.000717	0.000000 0.000000 0.000993	0.000000 0.000000 -0.000318	0.000000 0.000000 -0.000046	0.000000 0.000000 -0.000031	0.000000 0.000000 0.000968	0.000000 0.000000 0.001801	0.000000 0.000000 -0.001480	0.000000 0.000000 -0.010304	0.000000 0.000000 0.001934	0.000000 0.000000 -0.000359	0.000000 0.000000 -0.000625	0.000000 0.000000 -0.011707	0.000000 0.000000 -0.006904	0.000000 0.000000 -0.008997	0.000000 0.000000 -0.000045	0.000000 0.000000 -0.012290	0.000000 0.000000 -0.000176	0.000000 0.000000 0.007912	0.000000 0.000000 0.001204	0.000000 0.000000 -0.000208	0.000000 0.000000 0.011141	0.000000 0.000000 0.000128	0.000000 0.000000 0.000076	0.000000 0.000000 0.005921	0.000000 0.000000 -0.000389	0.000000 0.000000 -0.005678	0.000000 0.000000 -0.002692	0.000000 0.000000 -0.003127	0.000000 0.000000 0.000027	0.000000 0.000000 0.002112	0.000000 0.000000 0.005244	0.000000 0.000000 0.005168	0.000000 0.000000 -0.001379	0.000000 0.000000 -0.000082	0.000000 0.000000 -0.011345	0.000000 0.000000 0.003398	0.000000 0.000000 0.000216	0.000000 0.000000 -0.004165	0.000000 0.000000 -0.002179	0.000000 0.000000 -0.009242	0.000000 0.000000 -0.000177	0.000000 0.000000 -0.000020	0.000000 0.000000 -0.000628	0.000000 0.000000 0.000889	0.000000 0.000000 -0.000044	0.000000 0.000000 0.000094	0.000000 0.000000 -0.012077	0.000000 0.000000 0.001556	0.000000 0.000000 0.000861	0.000000 0.000000 0.000930	0.000000 0.000000 -0.000362	0.000000 0.000000 -0.007394	0.000000 0.000000 -0.003060	0.000000 0.000000 -0.007994	0.000000 0.000000 -0.007995	0.000000 0.000000 0.000258	0.000000 0.000000 -0.001109	0.000000 0.000000 0.011139	0.000000 0.000000 -0.015659	0.000000 0.000000 -0.007490	0.000000 0.000000 0.005687	0.000000 0.000000 0.000100	0.000000 0.000000 -0.001309	0.000000 0.000000 0.004618	0.000000 0.000000 0.005790	0.000000 0.000000 -0.000917	0.000000 0.000000 -0.008300	0.000000 0.000000 -0.000034	0.000000 0.000000 0.004253	0.000000 0.000000 -0.001899	0.000000 0.000000 -0.000318	0.000000 0.000000 0.000189	0.000000 0.000000 -0.004032	0.000000 0.000000 -0.001963	0.000000 0.000000 -0.001908	0.000000 0.000000 0.001666	0.000000 0.000000 -0.000256	0.000000 0.000000 0.000013	0.000000 0.000000 -0.000904	0.000000 0.000000 -0.001672	0.000000 0.000000 -0.003149	0.000000 0.000000 -0.000126	0.000000 0.000000 -0.000702	0.000000 0.000000 -0.003229	0.000000 0.000000 -0.002992	0.000000 0.000000 0.000031	0.000000 0.000000 -0.003878	0.000000 0.000000 0.000212	0.000000 0.000000 -0.000420	0.000000 0.000000 -0.007096	0.000000 0.000000 -0.000836	0.000000 0.000000 -0.007700	0.000000 0.000000 -0.002684	0.000000 0.000000 0.001340	0.000000 0.000000 0.001075	0.000000 0.000000 -0.000092	0.000000 0.000000 0.000126	0.000000 0.000000 -0.000251	0.000000 0.000000 -0.001564	0.000000 0.000000 0.000622	0.000000 0.000000 -0.000176	0.000000 0.000000 0.000039	0.000000 0.000000 -0.003981	0.000000 0.000000 -0.006241	0.000000 0.000000 -0.003843	0.000000 0.000000 -0.007365	0.000000 0.000000 0.003824	0.000000 0.000000 0.005553	0.000000 0.000000 0.000051	0.000000 0.000000 -0.000285	0.000000 0.000000 -0.000302	0.000000 0.000000 0.002433	0.000000 0.000000 0.000427	0.000000 0.000000 -0.004075	0.000000 0.000000 0.000286	0.000000 0.000000 0.003569	0.000000 0.000000 -0.003998	0.000000 0.000000 -0.000399	0.000000 0.000000 -0.001338	0.000000 0.000000 0.001902	0.000000 0.000000 0.000015	0.000000 0.000000 0.001749	0.000000 0.000000 -0.000490	0.000000 0.000000 0.000008	0.000000 0.000000 0.004559	0.000000 0.000000 0.000243	0.000000 0.000000 0.001123	0.000000 0.000000 0.002303	0.000000 0.000000 0.000713	0.000000 0.000000 0.000004	0.000000 0.000000 -0.000681	0.000000 0.000000 -0.000403	0.000000 0.000000 -0.000616	0.000000 0.000000 0.000479	0.000000 0.000000 -0.000635	0.000000 0.000000 -0.003640	0.000000 0.000000 -0.000046	0.000000 0.000000 -0.000361	0.000000 0.000000 -0.000851	0.000000 0.000000 -0.003200	0.000000 0.000000 0.000760	0.000000 0.000000 0.000120	0.000000 0.000000 -0.008398	0.000000 0.000000 -0.002731	0.000000 0.000000 -0.007451	0.000000 0.000000 0.001444	0.000000 0.000000 -0.002788	0.000000 0.000000 -0.002916	0.000000 0.000000 -1.874430	0.000000 0.000000 -0.002929	0.000000 0.000000 0.001390	0.000000 0.000000 0.000231	0.000000 0.000000 -0.000142	0.000000 0.000000 -0.002668	0.000000 0.000000 0.000525	0.000000 0.000000 0.000143	0.000000 0.000000 -0.000089	0.000000 0.000000 -0.003923	0.000000 0.000000 -0.000462	0.000000 0.000000 0.000929	0.000000 0.000000 0.007469	0.000000 0.000000 0.000742	0.000000 0.000000 0.000597	0.000000 0.000000 -0.000275	0.000000 0.000000 0.005856	0.000000 0.000000 0.000185	0.000000 0.000000 -0.000026	0.000000 0.000000 0.011147	0.000000 0.000000 -0.000223	0.000000 0.000000 -0.000465	0.000000 0.000000 -0.000392	0.000000 0.000000 0.001558	0.000000 0.000000 -0.000306	0.000000 0.000000 -0.001132	0.000000 0.000000 -0.000014	0.000000 0.000000 -0.007843	0.000000 0.000000 -0.004727	0.000000 0.000000 0.001087	0.000000 0.000000 -0.003206	0.000000 0.000000 0.000240	0.000000 0.000000 0.001353	0.000000 0.000000 -0.001267	0.000000 0.000000 0.001115	0.000000 0.000000 -0.000182	0.000000 0.000000 -0.000890	0.000000 0.000000 0.000237	0.000000 0.000000 -0.002044	0.000000 0.000000 -0.006344	0.000000 0.000000 -0.000207	0.000000 0.000000 0.001553	0.000000 0.000000 0.001849	0.000000 0.000000 -0.010442	0.000000 0.000000 0.000000	0.000000 0.000000 0.004357	0.000000 0.000000 -0.000141	0.000000 0.000000 -0.000000	0.000000 0.000000 -0.000004	0.000000 0.000000 0.001849	0.000000 0.000000 -0.000705	0.000000 0.000000 -0.012924	0.000000 0.000000 0.000414	0.000000 0.000000 -0.001206	0.000000 0.000000 0.000143	0.000000 0.000000 -0.000108	0.000000 0.000000 0.000893	0.000000 0.000000 -0.000028	0.000000 0.000000 -0.000917	0.000000 0.000000 -0.000238	0.000000 0.000000 0.000187	0.000000 0.000000 0.000001	0.000000 0.000000 0.002173	0.000000 0.000000 -0.001390	0.000000 0.000000 -0.000746	0.000000 0.000000 -0.000571	0.000000 0.000000 -0.000025	0.000000 0.000000 -0.000501	0.000000 0.000000 0.011780	0.000000 0.000000 -3.881792	0.000000 0.000000 -0.006033	0.000000 0.000000 -0.000293	0.000000 0.000000 -0.001305	0.000000 0.000000 0.000645	0.000000 0.000000 -0.007870	0.000000 0.000000 0.001289	0.000000 0.000000 0.000087	0.000000 0.000000 -0.000139	0.000000 0.000000 -0.000124	0.000000 0.000000 -0.004469	0.000000 0.000000 -0.000747	0.000000 0.000000 -0.000429	0.000000 0.000000 0.000007	0.000000 0.000000 -0.004301	0.000000 0.000000 0.008296	0.000000 0.000000 -0.001634	0.000000 0.000000 -0.000783	0.000000 0.000000 0.000861	0.000000 0.000000 -0.001379	0.000000 0.000000 0.003749	0.000000 0.000000 0.001421	0.000000 0.000000 -0.000024	0.000000 0.000000 0.000035	0.000000 0.000000 -0.000357	0.000000 0.000000 -0.000464	0.000000 0.000000 0.003451	0.000000 0.000000 -0.009928	0.000000 0.000000 0.000989	0.000000 0.000000 0.000232	0.000000 0.000000 -0.000009	0.000000 0.000000 -0.001010	0.000000 0.000000 -0.001161	0.000000 0.000000 0.000011	0.000000 0.000000 0.000004	0.000000 0.000000 0.000059	0.000000 0.000000 0.000680	0.000000 0.000000 0.000037	0.000000 0.000000 -0.001221	0.000000 0.000000 0.000336	0.000000 0.000000 0.015254	0.000000 0.000000 -0.000058	0.000000 0.000000 0.000204	0.000000 0.000000 -0.000648	0.000000 0.000000 -0.000061	0.000000 0.000000 0.000158	0.000000 0.000000 0.000901	0.000000 0.000000 0.008745	0.000000 0.000000 0.000161	0.000000 0.000000 -0.003875	0.000000 0.000000 0.000174	0.000000 0.000000 0.000263	0.000000 0.000000 0.000496	0.000000 0.000000 -0.004550	0.000000 0.000000 -0.002598	0.000000 0.000000 0.000687	0.000000 0.000000 0.000489	0.000000 0.000000 0.000040	0.000000 0.000000 -0.000097	0.000000 0.000000 -0.000055	0.000000 0.000000 0.000021	0.000000 0.000000 0.000929	0.000000 0.000000 -0.000023	0.000000 0.000000 -0.003355	0.000000 0.000000 -0.003399	0.000000 0.000000 -0.000395	0.000000 0.000000 0.000312	0.000000 0.000000 0.000163	0.000000 0.000000 -0.000087	0.000000 0.000000 0.000053	0.000000 0.000000 -0.000327	0.000000 0.000000 -0.000118	0.000000 0.000000 0.000241	0.000000 0.000000 0.000350	0.000000 0.000000 0.000286	0.000000 0.000000 -0.000698	0.000000 0.000000 -0.000347	0.000000 0.000000 0.000442	0.000000 0.000000 0.000042	0.000000 0.000000 -0.000020	0.000000 0.000000 0.000909	0.000000 0.000000 -0.000170	0.000000 0.000000 0.001585	0.000000 0.000000 0.000048	0.000000 0.000000 -0.000112	0.000000 0.000000 -0.000590	0.000000 0.000000 -0.001333	0.000000 0.000000 -0.000922	0.000000 0.000000 0.000280	0.000000 0.000000 -0.000803	0.000000 0.000000 -0.000536	0.000000 0.000000 0.000693	0.000000 0.000000 -0.001040	0.000000 0.000000 0.000033	0.000000 0.000000 -0.000054	0.000000 0.000000 0.000918	0.000000 0.000000 -0.000384	0.000000 0.000000 -0.001346	0.000000 0.000000 -0.000086	0.000000 0.000000 -0.000093	0.000000 0.000000 0.000146	0.000000 0.000000 0.000131	0.000000 0.000000 -0.000001	0.000000 0.000000 -0.000247	0.000000 0.000000 0.000347	0.000000 0.000000 -0.000302	0.000000 0.000000 0.000051	0.000000 0.000000 -0.000482	0.000000 0.000000 -0.000442	0.000000 0.000000 0.000394	0.000000 0.000000 -0.000786	0.000000 0.000000 -0.000207	0.000000 0.000000 -0.000306	0.000000 0.000000 -0.001018	0.000000 0.000000 -0.000043	0.000000 0.000000 -0.000170	0.000000 0.000000 0.003680	0.000000 0.000000 -0.000242	0.000000 0.000000 -0.000448	0.000000 0.000000 -0.000108	0.000000 0.000000 0.000014	0.000000 0.000000 0.000201	0.000000 0.000000 -0.003350	0.000000 0.000000 -0.000399	0.000000 0.000000 -0.000582	0.000000 0.000000 0.006760	0.000000 0.000000 0.000125	0.000000 0.000000 0.000324	0.000000 0.000000 -0.000294	0.000000 0.000000 0.000993	0.000000 0.000000 0.000016	0.000000 0.000000 0.000274	0.000000 0.000000 -0.000125	0.000000 0.000000 0.000005	0.000000 0.000000 0.000107	0.000000 0.000000 -0.000048	0.000000 0.000000 -0.000785	0.000000 0.000000 -0.000937	0.000000 0.000000 0.000763	0.000000 0.000000 0.000337	0.000000 0.000000 -0.000450	0.000000 0.000000 0.000611	0.000000 0.000000 -0.000195	0.000000 0.000000 -0.000030	0.000000 0.000000 -0.000450	0.000000 0.000000 0.000076	0.000000 0.000000 -0.000141	0.000000 0.000000 -0.000128	0.000000 0.000000 0.000011	0.000000 0.000000 -0.000772	0.000000 0.000000 -0.000031	0.000000 0.000000 0.000857	0.000000 0.000000 -0.000100	0.000000 0.000000 -0.001693	0.000000 0.000000 -0.000117	0.000000 0.000000 -0.000143	0.000000 0.000000 -0.000000	0.000000 0.000000 -0.006514	0.000000 0.000000 -0.000578	0.000000 0.000000 -0.000871	0.000000 0.000000 0.000872	0.000000 0.000000 -0.000238	0.000000 0.000000 -0.001156	0.000000 0.000000 -0.000474	0.000000 0.000000 0.000413	0.000000 0.000000 -0.000246	0.000000 0.000000 -0.002269	0.000000 0.000000 -0.000018	0.000000 0.000000 0.008246	0.000000 0.000000 0.006212	0.000000 0.000000 -0.000409	0.000000 0.000000 -0.000068	0.000000 0.000000 -0.014061	0.000000 0.000000 -0.000005	0.000000 0.000000 -0.001009	0.000000 0.000000 -0.001133	0.000000 0.000000 0.000619	0.000000 0.000000 0.001343	0.000000 0.000000 0.000165	0.000000 0.000000 -0.000040	0.000000 0.000000 0.000613	0.000000 0.000000 0.000990	0.000000 0.000000 0.000220	0.000000 0.000000 -0.000601	0.000000 0.000000 -0.000050	0.000000 0.000000 -0.002472	0.000000 0.000000 0.006799	0.000000 0.000000 -0.000147	0.000000 0.000000 -0.000611	0.000000 0.000000 0.001670	0.000000 0.000000 -0.000016	0.000000 0.000000 -0.002850	0.000000 0.000000 0.000628	0.000000 0.000000 0.002118	0.000000 0.000000 0.000805	0.000000 0.000000 -0.000026	0.000000 0.000000 0.000007	0.000000 0.000000 0.000636	0.000000 0.000000 -0.000859	0.000000 0.000000 -0.000209	0.000000 0.000000 -0.000008	0.000000 0.000000 0.000917	0.000000 0.000000 -0.002315	0.000000 0.000000 0.000201	0.000000 0.000000 -0.001320	0.000000 0.000000 0.000005	0.000000 0.000000 -0.001489	0.000000 0.000000 0.000965	0.000000 0.000000 -0.001504	0.000000 0.000000 0.000146	0.000000 0.000000 -0.000504	0.000000 0.000000 -0.000701	0.000000 0.000000 0.001178	0.000000 0.000000 -0.000359	0.000000 0.000000 -0.000353	0.000000 0.000000 -0.000435	0.000000 0.000000 0.000275	0.000000 0.000000 0.000071	0.000000 0.000000 -0.001692	0.000000 0.000000 -0.000003	0.000000 0.000000 -0.000225	0.000000 0.000000 -0.000025	0.000000 0.000000 -0.000682	0.000000 0.000000 -0.001100	0.000000 0.000000 -0.000040	0.000000 0.000000 -0.001064	0.000000 0.000000 0.000706	0.000000 0.000000 -0.000023	0.000000 0.000000 -0.000492	0.000000 0.000000 -0.001982	0.000000 0.000000 0.000880	0.000000 0.000000 0.000499	0.000000 0.000000 -0.000146	0.000000 0.000000 -0.000008	0.000000 0.000000 0.000091	0.000000 0.000000 -0.000065	0.000000 0.000000 -0.000103	0.000000 0.000000 0.000061	0.000000 0.000000 -0.000673	0.000000 0.000000 0.000141	0.000000 0.000000 -0.001313	0.000000 0.000000 0.001431	0.000000 0.000000 -0.000201	0.000000 0.000000 0.000058	0.000000 0.000000 0.008146	0.000000 0.000000 -0.000745	0.000000 0.000000 -0.001092	0.000000 0.000000 -0.000188	
TENSORS stress float
0.000000 0.000000 0.000000 0.000000 0.000000 0.000000 0.000000 0.000000 0.000000
0.000000 0.000000 0.000000 0.000000 0.000000 0.000000 0.000000 0.000000 0.000000
0.000000 0.000000 0.000000 0.000000 0.000000 0.000000 0.000000 0.000000 0.000000
0.000000 0.000000 0.000000 0.000000 0.000000 0.000000 0.000000 0.000000 0.000000
0.000000 0.000000 0.000000 0.000000 0.000000 0.000000 0.000000 0.000000 0.000000
0.000000 0.000000 0.000000 0.000000 0.000000 0.000000 0.000000 0.000000 0.000000
0.000000 0.000000 0.000000 0.000000 0.000000 0.000000 0.000000 0.000000 0.000000
0.000000 0.000000 0.000000 0.000000 0.000000 0.000000 0.000000 0.000000 0.000000
0.000000 0.000000 0.000000 0.000000 0.000000 0.000000 0.000000 0.000000 0.000000
0.000000 0.000000 0.000000 0.000000 0.000000 0.000000 0.000000 0.000000 0.000000
0.000000 0.000000 0.000000 0.000000 0.000000 0.000000 0.000000 0.000000 0.000000
0.000000 0.000000 0.000000 0.000000 0.000000 0.000000 0.000000 0.000000 0.000000
0.000000 0.000000 0.000000 0.000000 0.000000 0.000000 0.000000 0.000000 0.000000
0.000000 0.000000 0.000000 0.000000 0.000000 0.000000 0.000000 0.000000 0.000000
0.000000 0.000000 0.000000 0.000000 0.000000 0.000000 0.000000 0.000000 0.000000
0.000000 0.000000 0.000000 0.000000 0.000000 0.000000 0.000000 0.000000 0.000000
0.000000 0.000000 0.000000 0.000000 0.000000 0.000000 0.000000 0.000000 0.000000
0.000000 0.000000 0.000000 0.000000 0.000000 0.000000 0.000000 0.000000 0.000000
0.000000 0.000000 0.000000 0.000000 0.000000 0.000000 0.000000 0.000000 0.000000
0.000000 0.000000 0.000000 0.000000 0.000000 0.000000 0.000000 0.000000 0.000000
0.000000 0.000000 0.000000 0.000000 0.000000 0.000000 0.000000 0.000000 0.000000
0.000000 0.000000 0.000000 0.000000 0.000000 0.000000 0.000000 0.000000 0.000000
0.000000 0.000000 0.000000 0.000000 0.000000 0.000000 0.000000 0.000000 0.000000
0.000000 0.000000 0.000000 0.000000 0.000000 0.000000 0.000000 0.000000 0.000000
0.000000 0.000000 0.000000 0.000000 0.000000 0.000000 0.000000 0.000000 0.000000
0.000000 0.000000 0.000000 0.000000 0.000000 0.000000 0.000000 0.000000 0.000000
0.000000 0.000000 0.000000 0.000000 0.000000 0.000000 0.000000 0.000000 0.000000
0.000000 0.000000 0.000000 0.000000 0.000000 0.000000 0.000000 0.000000 0.000000
0.000000 0.000000 0.000000 0.000000 0.000000 0.000000 0.000000 0.000000 0.000000
0.000000 0.000000 0.000000 0.000000 0.000000 0.000000 0.000000 0.000000 0.000000
0.000000 0.000000 0.000000 0.000000 0.000000 0.000000 0.000000 0.000000 0.000000
0.000000 0.000000 0.000000 0.000000 0.000000 0.000000 0.000000 0.000000 0.000000
0.000000 0.000000 0.000000 0.000000 0.000000 0.000000 0.000000 0.000000 0.000000
0.000000 0.000000 0.000000 0.000000 0.000000 0.000000 0.000000 0.000000 0.000000
0.000000 0.000000 0.000000 0.000000 0.000000 0.000000 0.000000 0.000000 0.000000
0.000000 0.000000 0.000000 0.000000 0.000000 0.000000 0.000000 0.000000 0.000000
0.000000 0.000000 0.000000 0.000000 0.000000 0.000000 0.000000 0.000000 0.000000
0.000000 0.000000 0.000000 0.000000 0.000000 0.000000 0.000000 0.000000 0.000000
0.000000 0.000000 0.000000 0.000000 0.000000 0.000000 0.000000 0.000000 0.000000
0.000000 0.000000 0.000000 0.000000 0.000000 0.000000 0.000000 0.000000 0.000000
0.000000 0.000000 0.000000 0.000000 0.000000 0.000000 0.000000 0.000000 0.000000
0.000000 0.000000 0.000000 0.000000 0.000000 0.000000 0.000000 0.000000 0.000000
0.000000 0.000000 0.000000 0.000000 0.000000 0.000000 0.000000 0.000000 0.000000
0.000000 0.000000 0.000000 0.000000 0.000000 0.000000 0.000000 0.000000 0.000000
0.000000 0.000000 0.000000 0.000000 0.000000 0.000000 0.000000 0.000000 0.000000
0.000000 0.000000 0.000000 0.000000 0.000000 0.000000 0.000000 0.000000 0.000000
0.000000 0.000000 0.000000 0.000000 0.000000 0.000000 0.000000 0.000000 0.000000
0.000000 0.000000 0.000000 0.000000 0.000000 0.000000 0.000000 0.000000 0.000000
0.000000 0.000000 0.000000 0.000000 0.000000 0.000000 0.000000 0.000000 0.000000
0.000000 0.000000 0.000000 0.000000 0.000000 0.000000 0.000000 0.000000 0.000000
0.000000 0.000000 0.000000 0.000000 0.000000 0.000000 0.000000 0.000000 0.000000
0.000000 0.000000 0.000000 0.000000 0.000000 0.000000 0.000000 0.000000 0.000000
0.000000 0.000000 0.000000 0.000000 0.000000 0.000000 0.000000 0.000000 0.000000
0.000000 0.000000 0.000000 0.000000 0.000000 0.000000 0.000000 0.000000 0.000000
0.000000 0.000000 0.000000 0.000000 0.000000 0.000000 0.000000 0.000000 0.000000
0.000000 0.000000 0.000000 0.000000 0.000000 0.000000 0.000000 0.000000 0.000000
0.000000 0.000000 0.000000 0.000000 0.000000 0.000000 0.000000 0.000000 0.000000
0.000000 0.000000 0.000000 0.000000 0.000000 0.000000 0.000000 0.000000 0.000000
0.000000 0.000000 0.000000 0.000000 0.000000 0.000000 0.000000 0.000000 0.000000
0.000000 0.000000 0.000000 0.000000 0.000000 0.000000 0.000000 0.000000 0.000000
0.000000 0.000000 0.000000 0.000000 0.000000 0.000000 0.000000 0.000000 0.000000
0.000000 0.000000 0.000000 0.000000 0.000000 0.000000 0.000000 0.000000 0.000000
0.000000 0.000000 0.000000 0.000000 0.000000 0.000000 0.000000 0.000000 0.000000
0.000000 0.000000 0.000000 0.000000 0.000000 0.000000 0.000000 0.000000 0.000000
0.000000 0.000000 0.000000 0.000000 0.000000 0.000000 0.000000 0.000000 0.000000
0.000000 0.000000 0.000000 0.000000 0.000000 0.000000 0.000000 0.000000 0.000000
0.000000 0.000000 0.000000 0.000000 0.000000 0.000000 0.000000 0.000000 0.000000
0.000000 0.000000 0.000000 0.000000 0.000000 0.000000 0.000000 0.000000 0.000000
0.000000 0.000000 0.000000 0.000000 0.000000 0.000000 0.000000 0.000000 0.000000
0.000000 0.000000 0.000000 0.000000 0.000000 0.000000 0.000000 0.000000 0.000000
0.000000 0.000000 0.000000 0.000000 0.000000 0.000000 0.000000 0.000000 0.000000
0.000000 0.000000 0.000000 0.000000 0.000000 0.000000 0.000000 0.000000 0.000000
0.000000 0.000000 0.000000 0.000000 0.000000 0.000000 0.000000 0.000000 0.000000
0.000000 0.000000 0.000000 0.000000 0.000000 0.000000 0.000000 0.000000 0.000000
0.000000 0.000000 0.000000 0.000000 0.000000 0.000000 0.000000 0.000000 0.000000
0.000000 0.000000 0.000000 0.000000 0.000000 0.000000 0.000000 0.000000 0.000000
0.000000 0.000000 0.000000 0.000000 0.000000 0.000000 0.000000 0.000000 0.000000
0.000000 0.000000 0.000000 0.000000 0.000000 0.000000 0.000000 0.000000 0.000000
0.000000 0.000000 0.000000 0.000000 0.000000 0.000000 0.000000 0.000000 0.000000
0.000000 0.000000 0.000000 0.000000 0.000000 0.000000 0.000000 0.000000 0.000000
0.000000 0.000000 0.000000 0.000000 0.000000 0.000000 0.000000 0.000000 0.000000
0.000000 0.000000 0.000000 0.000000 0.000000 0.000000 0.000000 0.000000 0.000000
0.000000 0.000000 0.000000 0.000000 0.000000 0.000000 0.000000 0.000000 0.000000
0.000000 0.000000 0.000000 0.000000 0.000000 0.000000 0.000000 0.000000 0.000000
0.000000 0.000000 0.000000 0.000000 0.000000 0.000000 0.000000 0.000000 0.000000
0.000000 0.000000 0.000000 0.000000 0.000000 0.000000 0.000000 0.000000 0.000000
0.000000 0.000000 0.000000 0.000000 0.000000 0.000000 0.000000 0.000000 0.000000
0.000000 0.000000 0.000000 0.000000 0.000000 0.000000 0.000000 0.000000 0.000000
0.000000 0.000000 0.000000 0.000000 0.000000 0.000000 0.000000 0.000000 0.000000
0.000000 0.000000 0.000000 0.000000 0.000000 0.000000 0.000000 0.000000 0.000000
0.000000 0.000000 0.000000 0.000000 0.000000 0.000000 0.000000 0.000000 0.000000
0.000000 0.000000 0.000000 0.000000 0.000000 0.000000 0.000000 0.000000 0.000000
0.000000 0.000000 0.000000 0.000000 0.000000 0.000000 0.000000 0.000000 0.000000
0.000000 0.000000 0.000000 0.000000 0.000000 0.000000 0.000000 0.000000 0.000000
0.000000 0.000000 0.000000 0.000000 0.000000 0.000000 0.000000 0.000000 0.000000
0.000000 0.000000 0.000000 0.000000 0.000000 0.000000 0.000000 0.000000 0.000000
0.000000 0.000000 0.000000 0.000000 0.000000 0.000000 0.000000 0.000000 0.000000
0.000000 0.000000 0.000000 0.000000 0.000000 0.000000 0.000000 0.000000 0.000000
0.000000 0.000000 0.000000 0.000000 0.000000 0.000000 0.000000 0.000000 0.000000
0.000000 0.000000 0.000000 0.000000 0.000000 0.000000 0.000000 0.000000 0.000000
0.000000 0.000000 0.000000 0.000000 0.000000 0.000000 0.000000 0.000000 0.000000
0.000000 0.000000 0.000000 0.000000 0.000000 0.000000 0.000000 0.000000 0.000000
0.000000 0.000000 0.000000 0.000000 0.000000 0.000000 0.000000 0.000000 0.000000
0.000000 0.000000 0.000000 0.000000 0.000000 0.000000 0.000000 0.000000 0.000000
0.000000 0.000000 0.000000 0.000000 0.000000 0.000000 0.000000 0.000000 0.000000
0.000000 0.000000 0.000000 0.000000 0.000000 0.000000 0.000000 0.000000 0.000000
0.000000 0.000000 0.000000 0.000000 0.000000 0.000000 0.000000 0.000000 0.000000
0.000000 0.000000 0.000000 0.000000 0.000000 0.000000 0.000000 0.000000 0.000000
0.000000 0.000000 0.000000 0.000000 0.000000 0.000000 0.000000 0.000000 0.000000
0.000000 0.000000 0.000000 0.000000 0.000000 0.000000 0.000000 0.000000 0.000000
0.000000 0.000000 0.000000 0.000000 0.000000 0.000000 0.000000 0.000000 0.000000
0.000000 0.000000 0.000000 0.000000 0.000000 0.000000 0.000000 0.000000 0.000000
0.000000 0.000000 0.000000 0.000000 0.000000 0.000000 0.000000 0.000000 0.000000
0.000000 0.000000 0.000000 0.000000 0.000000 0.000000 0.000000 0.000000 0.000000
0.000000 0.000000 0.000000 0.000000 0.000000 0.000000 0.000000 0.000000 0.000000
0.000000 0.000000 0.000000 0.000000 0.000000 0.000000 0.000000 0.000000 0.000000
0.000000 0.000000 0.000000 0.000000 0.000000 0.000000 0.000000 0.000000 0.000000
0.000000 0.000000 0.000000 0.000000 0.000000 0.000000 0.000000 0.000000 0.000000
0.000000 0.000000 0.000000 0.000000 0.000000 0.000000 0.000000 0.000000 0.000000
0.000000 0.000000 0.000000 0.000000 0.000000 0.000000 0.000000 0.000000 0.000000
0.000000 0.000000 0.000000 0.000000 0.000000 0.000000 0.000000 0.000000 0.000000
0.000000 0.000000 0.000000 0.000000 0.000000 0.000000 0.000000 0.000000 0.000000
0.000000 0.000000 0.000000 0.000000 0.000000 0.000000 0.000000 0.000000 0.000000
0.000000 0.000000 0.000000 0.000000 0.000000 0.000000 0.000000 0.000000 0.000000
0.000000 0.000000 0.000000 0.000000 0.000000 0.000000 0.000000 0.000000 0.000000
0.000000 0.000000 0.000000 0.000000 0.000000 0.000000 0.000000 0.000000 0.000000
0.000000 0.000000 0.000000 0.000000 0.000000 0.000000 0.000000 0.000000 0.000000
0.000000 0.000000 0.000000 0.000000 0.000000 0.000000 0.000000 0.000000 0.000000
0.000000 0.000000 0.000000 0.000000 0.000000 0.000000 0.000000 0.000000 0.000000
0.000000 0.000000 0.000000 0.000000 0.000000 0.000000 0.000000 0.000000 0.000000
0.000000 0.000000 0.000000 0.000000 0.000000 0.000000 0.000000 0.000000 0.000000
0.000000 0.000000 0.000000 0.000000 0.000000 0.000000 0.000000 0.000000 0.000000
0.000000 0.000000 0.000000 0.000000 0.000000 0.000000 0.000000 0.000000 0.000000
0.000000 0.000000 0.000000 0.000000 0.000000 0.000000 0.000000 0.000000 0.000000
0.000000 0.000000 0.000000 0.000000 0.000000 0.000000 0.000000 0.000000 0.000000
0.000000 0.000000 0.000000 0.000000 0.000000 0.000000 0.000000 0.000000 0.000000
0.000000 0.000000 0.000000 0.000000 0.000000 0.000000 0.000000 0.000000 0.000000
0.000000 0.000000 0.000000 0.000000 0.000000 0.000000 0.000000 0.000000 0.000000
0.000000 0.000000 0.000000 0.000000 0.000000 0.000000 0.000000 0.000000 0.000000
0.000000 0.000000 0.000000 0.000000 0.000000 0.000000 0.000000 0.000000 0.000000
0.000000 0.000000 0.000000 0.000000 0.000000 0.000000 0.000000 0.000000 0.000000
0.000000 0.000000 0.000000 0.000000 0.000000 0.000000 0.000000 0.000000 0.000000
0.000000 0.000000 0.000000 0.000000 0.000000 0.000000 0.000000 0.000000 0.000000
0.000000 0.000000 0.000000 0.000000 0.000000 0.000000 0.000000 0.000000 0.000000
0.000000 0.000000 0.000000 0.000000 0.000000 0.000000 0.000000 0.000000 0.000000
0.000000 0.000000 0.000000 0.000000 0.000000 0.000000 0.000000 0.000000 0.000000
0.000000 0.000000 0.000000 0.000000 0.000000 0.000000 0.000000 0.000000 0.000000
0.000000 0.000000 0.000000 0.000000 0.000000 0.000000 0.000000 0.000000 0.000000
0.000000 0.000000 0.000000 0.000000 0.000000 0.000000 0.000000 0.000000 0.000000
0.000000 0.000000 0.000000 0.000000 0.000000 0.000000 0.000000 0.000000 0.000000
0.000000 0.000000 0.000000 0.000000 0.000000 0.000000 0.000000 0.000000 0.000000
0.000000 0.000000 0.000000 0.000000 0.000000 0.000000 0.000000 0.000000 0.000000
0.000000 0.000000 0.000000 0.000000 0.000000 0.000000 0.000000 0.000000 0.000000
0.000000 0.000000 0.000000 0.000000 0.000000 0.000000 0.000000 0.000000 0.000000
0.000000 0.000000 0.000000 0.000000 0.000000 0.000000 0.000000 0.000000 0.000000
0.000000 0.000000 0.000000 0.000000 0.000000 0.000000 0.000000 0.000000 0.000000
0.000000 0.000000 0.000000 0.000000 0.000000 0.000000 0.000000 0.000000 0.000000
0.000000 0.000000 0.000000 0.000000 0.000000 0.000000 0.000000 0.000000 0.000000
0.000000 0.000000 0.000000 0.000000 0.000000 0.000000 0.000000 0.000000 0.000000
0.000000 0.000000 0.000000 0.000000 0.000000 0.000000 0.000000 0.000000 0.000000
0.000000 0.000000 0.000000 0.000000 0.000000 0.000000 0.000000 0.000000 0.000000
0.000000 0.000000 0.000000 0.000000 0.000000 0.000000 0.000000 0.000000 0.000000
0.000000 0.000000 0.000000 0.000000 0.000000 0.000000 0.000000 0.000000 0.000000
0.000000 0.000000 0.000000 0.000000 0.000000 0.000000 0.000000 0.000000 0.000000
0.000000 0.000000 0.000000 0.000000 0.000000 0.000000 0.000000 0.000000 0.000000
0.000000 0.000000 0.000000 0.000000 0.000000 0.000000 0.000000 0.000000 0.000000
0.000000 0.000000 0.000000 0.000000 0.000000 0.000000 0.000000 0.000000 0.000000
0.000000 0.000000 0.000000 0.000000 0.000000 0.000000 0.000000 0.000000 0.000000
0.000000 0.000000 0.000000 0.000000 0.000000 0.000000 0.000000 0.000000 0.000000
0.000000 0.000000 0.000000 0.000000 0.000000 0.000000 0.000000 0.000000 0.000000
0.000000 0.000000 0.000000 0.000000 0.000000 0.000000 0.000000 0.000000 0.000000
0.000000 0.000000 0.000000 0.000000 0.000000 0.000000 0.000000 0.000000 0.000000
0.000000 0.000000 0.000000 0.000000 0.000000 0.000000 0.000000 0.000000 0.000000
0.000000 0.000000 0.000000 0.000000 0.000000 0.000000 0.000000 0.000000 0.000000
0.000000 0.000000 0.000000 0.000000 0.000000 0.000000 0.000000 0.000000 0.000000
0.000000 0.000000 0.000000 0.000000 0.000000 0.000000 0.000000 0.000000 0.000000
0.000000 0.000000 0.000000 0.000000 0.000000 0.000000 0.000000 0.000000 0.000000
0.000000 0.000000 0.000000 0.000000 0.000000 0.000000 0.000000 0.000000 0.000000
0.000000 0.000000 0.000000 0.000000 0.000000 0.000000 0.000000 0.000000 0.000000
0.000000 0.000000 0.000000 0.000000 0.000000 0.000000 0.000000 0.000000 0.000000
0.000000 0.000000 0.000000 0.000000 0.000000 0.000000 0.000000 0.000000 0.000000
0.000000 0.000000 0.000000 0.000000 0.000000 0.000000 0.000000 0.000000 0.000000
0.000000 0.000000 0.000000 0.000000 0.000000 0.000000 0.000000 0.000000 0.000000
0.000000 0.000000 0.000000 0.000000 0.000000 0.000000 0.000000 0.000000 0.000000
0.000000 0.000000 0.000000 0.000000 0.000000 0.000000 0.000000 0.000000 0.000000
0.000000 0.000000 0.000000 0.000000 0.000000 0.000000 0.000000 0.000000 0.000000
0.000000 0.000000 0.000000 0.000000 0.000000 0.000000 0.000000 0.000000 0.000000
0.000000 0.000000 0.000000 0.000000 0.000000 0.000000 0.000000 0.000000 0.000000
0.000000 0.000000 0.000000 0.000000 0.000000 0.000000 0.000000 0.000000 0.000000
0.000000 0.000000 0.000000 0.000000 0.000000 0.000000 0.000000 0.000000 0.000000
0.000000 0.000000 0.000000 0.000000 0.000000 0.000000 0.000000 0.000000 0.000000
0.000000 0.000000 0.000000 0.000000 0.000000 0.000000 0.000000 0.000000 0.000000
0.000000 0.000000 0.000000 0.000000 0.000000 0.000000 0.000000 0.000000 0.000000
0.000000 0.000000 0.000000 0.000000 0.000000 0.000000 0.000000 0.000000 0.000000
0.000000 0.000000 0.000000 0.000000 0.000000 0.000000 0.000000 0.000000 0.000000
0.000000 0.000000 0.000000 0.000000 0.000000 0.000000 0.000000 0.000000 0.000000
0.000000 0.000000 0.000000 0.000000 0.000000 0.000000 0.000000 0.000000 0.000000
0.000000 0.000000 0.000000 0.000000 0.000000 0.000000 0.000000 0.000000 0.000000
0.000000 0.000000 0.000000 0.000000 0.000000 0.000000 0.000000 0.000000 0.000000
0.000000 0.000000 0.000000 0.000000 0.000000 0.000000 0.000000 0.000000 0.000000
0.000000 0.000000 0.000000 0.000000 0.000000 0.000000 0.000000 0.000000 0.000000
0.000000 0.000000 0.000000 0.000000 0.000000 0.000000 0.000000 0.000000 0.000000
0.000000 0.000000 0.000000 0.000000 0.000000 0.000000 0.000000 0.000000 0.000000
0.000000 0.000000 0.000000 0.000000 0.000000 0.000000 0.000000 0.000000 0.000000
0.000000 0.000000 0.000000 0.000000 0.000000 0.000000 0.000000 0.000000 0.000000
0.000000 0.000000 0.000000 0.000000 0.000000 0.000000 0.000000 0.000000 0.000000
0.000000 0.000000 0.000000 0.000000 0.000000 0.000000 0.000000 0.000000 0.000000
0.000000 0.000000 0.000000 0.000000 0.000000 0.000000 0.000000 0.000000 0.000000
0.000000 0.000000 0.000000 0.000000 0.000000 0.000000 0.000000 0.000000 0.000000
0.000000 0.000000 0.000000 0.000000 0.000000 0.000000 0.000000 0.000000 0.000000
0.000000 0.000000 0.000000 0.000000 0.000000 0.000000 0.000000 0.000000 0.000000
0.000000 0.000000 0.000000 0.000000 0.000000 0.000000 0.000000 0.000000 0.000000
0.000000 0.000000 0.000000 0.000000 0.000000 0.000000 0.000000 0.000000 0.000000
0.000000 0.000000 0.000000 0.000000 0.000000 0.000000 0.000000 0.000000 0.000000
0.000000 0.000000 0.000000 0.000000 0.000000 0.000000 0.000000 0.000000 0.000000
0.000000 0.000000 0.000000 0.000000 0.000000 0.000000 0.000000 0.000000 0.000000
0.000000 0.000000 0.000000 0.000000 0.000000 0.000000 0.000000 0.000000 0.000000
0.000000 0.000000 0.000000 0.000000 0.000000 0.000000 0.000000 0.000000 0.000000
0.000000 0.000000 0.000000 0.000000 0.000000 0.000000 0.000000 0.000000 0.000000
0.000000 0.000000 0.000000 0.000000 0.000000 0.000000 0.000000 0.000000 0.000000
0.000000 0.000000 0.000000 0.000000 0.000000 0.000000 0.000000 0.000000 0.000000
0.000000 0.000000 0.000000 0.000000 0.000000 0.000000 0.000000 0.000000 0.000000
14113169.011497 -636969.098382 0.000000 -636969.098382 20818283.528714 0.000000 0.000000 0.000000 0.000000
10390771.206195 -2715855.382360 0.000000 -2715855.382360 16117610.945417 0.000000 0.000000 0.000000 0.000000
11752205.152611 150554.593223 0.000000 150554.593223 19350595.129002 0.000000 0.000000 0.000000 0.000000
16709916.243846 -2513747.906072 0.000000 -2513747.906072 22661266.943669 0.000000 0.000000 0.000000 0.000000
12389052.435623 2749054.101922 0.000000 2749054.101922 14318201.491387 0.000000 0.000000 0.000000 0.000000
9836354.858774 -5275782.498419 0.000000 -5275782.498419 15767451.174054 0.000000 0.000000 0.000000 0.000000
15874998.335778 -4508424.908858 0.000000 -4508424.908858 23255776.375954 0.000000 0.000000 0.000000 0.000000
11738314.705717 362624.832795 0.000000 362624.832795 19107878.291701 0.000000 0.000000 0.000000 0.000000
9405571.939479 -3761810.028559 0.000000 -3761810.028559 15131345.960867 0.000000 0.000000 0.000000 0.000000
10679831.797853 3881631.844165 0.000000 3881631.844165 10403869.359055 0.000000 0.000000 0.000000 0.000000
10322003.292646 -2704773.760423 0.000000 -2704773.760423 18067567.546249 0.000000 0.000000 0.000000 0.000000
18601295.376545 1499953.537756 0.000000 1499953.537756 26083142.905724 0.000000 0.000000 0.000000 0.000000
10665832.785512 -2461361.153752 0.000000 -2461361.153752 18219218.332770 0.000000 0.000000 0.000000 0.000000
18113132.426624 -5097220.765122 0.000000 -5097220.765122 24746145.121443 0.000000 0.000000 0.000000 0.000000
12698677.039620 2810746.497798 0.000000 2810746.497798 14115793.444644 0.000000 0.000000 0.000000 0.000000
16220583.822929 2963299.578129 0.000000 2963299.578129 16802648.394250 0.000000 0.000000 0.000000 0.000000
9895108.765263 -2776682.587585 0.000000 -2776682.587585 18010735.848885 0.000000 0.000000 0.000000 0.000000
17597954.175885 -73946.701022 0.000000 -73946.701022 24739420.353683 0.000000 0.000000 0.000000 0.000000
14209467.820496 -3960568.586681 0.000000 -3960568.586681 21452816.406941 0.000000 0.000000 0.000000 0.000000
5663441.918668 3237688.493604 0.000000 3237688.493604 10007213.599805 0.000000 0.000000 0.000000 0.000000
10913886.454251 -3046246.820184 0.000000 -3046246.820184 20404286.900636 0.000000 0.000000 0.000000 0.000000
12349456.891723 5100202.115089 0.000000 5100202.115089 18201522.745375 0.000000 0.000000 0.000000 0.000000
17323307.250417 -1351534.947976 0.000000 -1351534.947976 23665915.531889 0.000000 0.000000 0.000000 0.000000
12669356.043948 469260.573446 0.000000 469260.573446 20185184.068110 0.000000 0.000000 0.000000 0.000000
9421323.546799 -2319785.312574 0.000000 -2319785.312574 15689158.215696 0.000000 0.000000 0.000000 0.000000
11947168.031010 2518793.508613 0.000000 2518793.508613 12182627.289951 0.000000 0.000000 0.000000 0.000000
11837935.959738 -6187634.988938 0.000000 -6187634.988938 17722394.939061 0.000000 0.000000 0.000000 0.000000
15893570.095316 -3736874.183761 0.000000 -3736874.183761 22856582.332602 0.000000 0.000000 0.000000 0.000000
15735353.657776 -4456331.258075 0.000000 -4456331.258075 22462101.715381 0.000000 0.000000 0.000000 0.000000
14242447.570721 705356.266125 0.000000 705356.266125 21044367.718826 0.000000 0.000000 0.000000 0.000000
12254588.654372 4363837.141851 0.000000 4363837.141851 16732984.808757 0.000000 0.000000 0.000000 0.000000
13080935.404218 -3659587.791865 0.000000 -3659587.791865 20872187.832198 0.000000 0.000000 0.000000 0.000000
9719257.229736 -3835401.111122 0.000000 -3835401.111122 14304809.936953 0.000000 0.000000 0.000000 0.000000
10630140.108133 -2683136.614935 0.000000 -2683136.614935 19796798.426505 0.000000 0.000000 0.000000 0.000000
16166233.394845 2788208.422687 0.000000 2788208.422687 17313839.226501 0.000000 0.000000 0.000000 0.000000
12166715.301761 -3372661.583021 0.000000 -3372661.583021 19167915.309522 0.000000 0.000000 0.000000 0.000000
14563012.837152 1978976.573529 0.000000 1978976.573529 20807625.351874 0.000000 0.000000 0.000000 0.000000
19397860.188672 -5528315.834914 0.000000 -5528315.834914 25677102.366913 0.000000 0.000000 0.000000 0.000000
11922662.085854 -3297619.311151 0.000000 -3297619.311151 18917316.947958 0.000000 0.000000 0.000000 0.000000
14846010.576026 -46384.138678 0.000000 -46384.138678 21673685.939416 0.000000 0.000000 0.000000 0.000000
17572587.092093 669602.939821 0.000000 669602.939821 24057885.683791 0.000000 0.000000 0.000000 0.000000
11686285.583571 -5796936.675177 0.000000 -5796936.675177 18499626.764509 0.000000 0.000000 0.000000 0.000000
11655520.306372 -6095094.868802 0.000000 -6095094.868802 18199289.232717 0.000000 0.000000 0.000000 0.000000
14187966.317651 1806117.110187 0.000000 1806117.110187 20996545.494236 0.000000 0.000000 0.000000 0.000000
10811803.248786 -2773069.702649 0.000000 -2773069.702649 17220439.249608 0.000000 0.000000 0.000000 0.000000
14233320.658802 -4896444.845554 0.000000 -4896444.845554 21961894.567011 0.000000 0.000000 0.000000 0.000000
17429748.527909 1303136.045193 0.000000 1303136.045193 23800023.891452 0.000000 0.000000 0.000000 0.000000
18652557.738861 1724853.510027 0.000000 1724853.510027 25886466.511957 0.000000 0.000000 0.000000 0.000000
18475985.041412 -5358516.223246 0.000000 -5358516.223246 24623847.523547 0.000000 0.000000 0.000000 0.000000
18058292.222133 1733468.472871 0.000000 1733468.472871 25332747.282894 0.000000 0.000000 0.000000 0.000000
12289810.300098 -384265.292142 0.000000 -384265.292142 19178761.860982 0.000000 0.000000 0.000000 0.000000
11857057.956686 2698839.106777 0.000000 2698839.106777 12178108.373476 0.000000 0.000000 0.000000 0.000000
17466362.232045 -693102.911141 0.000000 -693102.911141 24055248.162834 0.000000 0.000000 0.000000 0.000000
12217271.170651 -3811488.299679 0.000000 -3811488.299679 21202590.795959 0.000000 0.000000 0.000000 0.000000
14257102.824495 4414567.106485 0.000000 4414567.106485 19613151.723485 0.000000 0.000000 0.000000 0.000000
9273890.656537 -1810401.415505 0.000000 -1810401.415505 16326047.476860 0.000000 0.000000 0.000000 0.000000
17234336.378682 -2548518.419048 0.000000 -2548518.419048 22953884.052175 0.000000 0.000000 0.000000 0.000000
18546324.318965 1791931.057476 0.000000 1791931.057476 26039054.980672 0.000000 0.000000 0.000000 0.000000
16105184.020542 1186687.826296 0.000000 1186687.826296 22807128.532339 0.000000 0.000000 0.000000 0.000000
18709746.253224 1629440.772872 0.000000 1629440.772872 24459745.101157 0.000000 0.000000 0.000000 0.000000
16042002.441137 1064561.630976 0.000000 1064561.630976 22087666.238469 0.000000 0.000000 0.000000 0.000000
18943175.540264 1512819.798642 0.000000 1512819.798642 25398926.472912 0.000000 0.000000 0.000000 0.000000
16020339.328389 1500897.618874 0.000000 1500897.618874 21649011.673734 0.000000 0.000000 0.000000 0.000000
12113847.125117 3490461.474330 0.000000 3490461.474330 15178580.385466 0.000000 0.000000 0.000000 0.000000
17577728.934450 986533.657319 0.000000 986533.657319 24811910.447555 0.000000 0.000000 0.000000 0.000000
10780711.086379 -3123752.072637 0.000000 -3123752.072637 19084755.279927 0.000000 0.000000 0.000000 0.000000
10794495.459224 -3641072.659973 0.000000 -3641072.659973 16267671.315207 0.000000 0.000000 0.000000 0.000000
17341619.715723 1154992.241709 0.000000 1154992.241709 22917327.209810 0.000000 0.000000 0.000000 0.000000
13188972.899657 -2976233.635955 0.000000 -2976233.635955 20412718.155098 0.000000 0.000000 0.000000 0.000000
9616800.633129 -2565499.748628 0.000000 -2565499.748628 16163984.633871 0.000000 0.000000 0.000000 0.000000
11056233.830176 -2829538.403516 0.000000 -2829538.403516 17361710.596752 0.000000 0.000000 0.000000 0.000000
16722919.198838 290888.235431 0.000000 290888.235431 24000656.481452 0.000000 0.000000 0.000000 0.000000
8682653.067464 5145048.940740 0.000000 5145048.940740 10647408.972609 0.000000 0.000000 0.000000 0.000000
11209026.882679 -3138928.647392 0.000000 -3138928.647392 20605142.513735 0.000000 0.000000 0.000000 0.000000
18849592.831605 1555132.695112 0.000000 1555132.695112 25892066.181888 0.000000 0.000000 0.000000 0.000000
12680456.371054 3985354.111065 0.000000 3985354.111065 17811799.853765 0.000000 0.000000 0.000000 0.000000
13981619.605991 5354060.848194 0.000000 5354060.848194 16018543.238126 0.000000 0.000000 0.000000 0.000000
14573777.933971 -1691213.852359 0.000000 -1691213.852359 21106857.627764 0.000000 0.000000 0.000000 0.000000
12450495.172948 -5237910.221116 0.000000 -5237910.221116 16569149.778572 0.000000 0.000000 0.000000 0.000000
15850833.584842 -2696418.124876 0.000000 -2696418.124876 22293300.194694 0.000000 0.000000 0.000000 0.000000
15516544.156354 1160420.733338 0.000000 1160420.733338 21364793.617816 0.000000 0.000000 0.000000 0.000000
14173897.244617 4439209.680569 0.000000 4439209.680569 15332331.799338 0.000000 0.000000 0.000000 0.000000
17327736.140737 -4794694.619871 0.000000 -4794694.619871 24223282.973100 0.000000 0.000000 0.000000 0.000000
17036838.832439 1110978.105036 0.000000 1110978.105036 24075886.739538 0.000000 0.000000 0.000000 0.000000
10861239.808099 3810450.181786 0.000000 3810450.181786 9888835.440939 0.000000 0.000000 0.000000 0.000000
10817749.923774 3474623.696798 0.000000 3474623.696798 14822439.370273 0.000000 0.000000 0.000000 0.000000
16803529.357690 928112.461243 0.000000 928112.461243 23144607.484408 0.000000 0.000000 0.000000 0.000000
12178908.219520 -2030632.929225 0.000000 -2030632.929225 19047299.935162 0.000000 0.000000 0.000000 0.000000
13109319.268781 1846969.144969 0.000000 1846969.144969 20082934.985097 0.000000 0.000000 0.000000 0.000000
11156110.792179 -1047593.504072 0.000000 -1047593.504072 17819422.724619 0.000000 0.000000 0.000000 0.000000
15065862.947209 3419601.263347 0.000000 3419601.263347 15676180.009752 0.000000 0.000000 0.000000 0.000000
11264342.789983 3120883.640177 0.000000 3120883.640177 11085779.213996 0.000000 0.000000 0.000000 0.000000
11597833.940369 -3435740.022958 0.000000 -3435740.022958 19246280.457352 0.000000 0.000000 0.000000 0.000000
17102814.998743 325523.701470 0.000000 325523.701470 23994347.291090 0.000000 0.000000 0.000000 0.000000
16669460.577567 643587.806388 0.000000 643587.806388 25462956.844657 0.000000 0.000000 0.000000 0.000000
11548381.835889 -3930101.581971 0.000000 -3930101.581971 16563420.390139 0.000000 0.000000 0.000000 0.000000
11340191.926129 3788733.685438 0.000000 3788733.685438 19548627.672536 0.000000 0.000000 0.000000 0.000000
18209577.629686 1487815.639778 0.000000 1487815.639778 24146987.697898 0.000000 0.000000 0.000000 0.000000
10217783.325643 -4976349.569712 0.000000 -4976349.569712 15342428.362117 0.000000 0.000000 0.000000 0.000000
15388602.708724 3596648.322269 0.000000 3596648.322269 15815570.032781 0.000000 0.000000 0.000000 0.000000
17068300.494970 2445377.095528 0.000000 2445377.095528 19529582.993532 0.000000 0.000000 0.000000 0.000000
16112904.195921 1564287.249414 0.000000 1564287.249414 22621373.095243 0.000000 0.000000 0.000000 0.000000
12503473.570471 829934.944546 0.000000 829934.944546 19892434.686319 0.000000 0.000000 0.000000 0.000000
17840595.506345 1107447.451279 0.000000 1107447.451279 24341455.429729 0.000000 0.000000 0.000000 0.000000
10426635.896650 -4786917.970240 0.000000 -4786917.970240 16747616.486079 0.000000 0.000000 0.000000 0.000000
16713148.231377 -461952.850074 0.000000 -461952.850074 23369505.077519 0.000000 0.000000 0.000000 0.000000
13332878.740483 3643369.191261 0.000000 3643369.191261 14723883.983184 0.000000 0.000000 0.000000 0.000000
16503249.161474 1716129.030406 0.000000 1716129.030406 20889450.795111 0.000000 0.000000 0.000000 0.000000
16592733.821559 1260675.675920 0.000000 1260675.675920 22923073.610195 0.000000 0.000000 0.000000 0.000000
12417840.518063 1639150.747918 0.000000 1639150.747918 18629102.251953 0.000000 0.000000 0.000000 0.000000
11590819.000127 -3877866.801533 0.000000 -3877866.801533 16504008.058675 0.000000 0.000000 0.000000 0.000000
14684391.208514 4570521.687006 0.000000 4570521.687006 15787175.913438 0.000000 0.000000 0.000000 0.000000
9999270.597273 949112.828361 0.000000 949112.828361 15654555.849877 0.000000 0.000000 0.000000 0.000000
8954773.080517 -1314782.405502 0.000000 -1314782.405502 15300279.855550 0.000000 0.000000 0.000000 0.000000
124493.508638 -0.667659 0.000000 -0.667659 212980.025962 0.000000 0.000000 0.000000 0.000000
11573510.008675 -5524325.350332 0.000000 -5524325.350332 16549940.346320 0.000000 0.000000 0.000000 0.000000
14838196.697595 -465131.044621 0.000000 -465131.044621 22731689.497528 0.000000 0.000000 0.000000 0.000000
17145138.710690 495054.830131 0.000000 495054.830131 25163967.008387 0.000000 0.000000 0.000000 0.000000
15775699.854743 -2204265.934009 0.000000 -2204265.934009 22075129.118777 0.000000 0.000000 0.000000 0.000000
13576720.726298 2710790.755866 0.000000 2710790.755866 14905180.254965 0.000000 0.000000 0.000000 0.000000
17166602.905468 1327770.286377 0.000000 1327770.286377 23192962.313689 0.000000 0.000000 0.000000 0.000000
11355100.023314 3505703.832076 0.000000 3505703.832076 19387155.139949 0.000000 0.000000 0.000000 0.000000
15156996.012429 -4761621.095433 0.000000 -4761621.095433 22290452.645173 0.000000 0.000000 0.000000 0.000000
11185786.600186 3274228.329051 0.000000 3274228.329051 10654918.414266 0.000000 0.000000 0.000000 0.000000
12181624.345789 3893475.046601 0.000000 3893475.046601 18290870.459912 0.000000 0.000000 0.000000 0.000000
14293740.381631 -2659571.698948 0.000000 -2659571.698948 21102352.423241 0.000000 0.000000 0.000000 0.000000
12329390.899971 -5843701.811221 0.000000 -5843701.811221 17212881.215845 0.000000 0.000000 0.000000 0.000000
17612771.575442 -2608714.411691 0.000000 -2608714.411691 23187960.425175 0.000000 0.000000 0.000000 0.000000
11358465.673021 542631.729054 0.000000 542631.729054 17956206.390179 0.000000 0.000000 0.000000 0.000000
12293970.074898 722807.275078 0.000000 722807.275078 19424779.106089 0.000000 0.000000 0.000000 0.000000
10790726.055089 -2552126.391444 0.000000 -2552126.391444 18341688.755163 0.000000 0.000000 0.000000 0.000000
10344259.140486 -2819251.172232 0.000000 -2819251.172232 19043199.276582 0.000000 0.000000 0.000000 0.000000
13432577.090330 1285773.042450 0.000000 1285773.042450 20461664.577607 0.000000 0.000000 0.000000 0.000000
14005140.901740 1970049.973924 0.000000 1970049.973924 16344301.043154 0.000000 0.000000 0.000000 0.000000
16980309.118452 1385999.408938 0.000000 1385999.408938 22098385.584015 0.000000 0.000000 0.000000 0.000000
18189890.952036 -5746332.411793 0.000000 -5746332.411793 24087594.876095 0.000000 0.000000 0.000000 0.000000
6167046.012078 3712494.600151 0.000000 3712494.600151 10659601.826449 0.000000 0.000000 0.000000 0.000000
12336241.745494 -3433024.882074 0.000000 -3433024.882074 19724539.184509 0.000000 0.000000 0.000000 0.000000
12705118.568758 -4102083.726404 0.000000 -4102083.726404 20824786.370924 0.000000 0.000000 0.000000 0.000000
10834963.491159 -2696871.093358 0.000000 -2696871.093358 18266293.313889 0.000000 0.000000 0.000000 0.000000
13796399.309906 -3667684.868801 0.000000 -3667684.868801 21355038.471416 0.000000 0.000000 0.000000 0.000000
11707829.908338 2829338.024378 0.000000 2829338.024378 14165414.360193 0.000000 0.000000 0.000000 0.000000
17327880.215644 1441263.236675 0.000000 1441263.236675 24038390.189248 0.000000 0.000000 0.000000 0.000000
207291.312544 0.000000 0.000000 0.000000 212871.835295 0.000000 0.000000 0.000000 0.000000
14144594.539391 1029764.255391 0.000000 1029764.255391 19961146.071342 0.000000 0.000000 0.000000 0.000000
13459507.942878 3517164.961001 0.000000 3517164.961001 16599866.781249 0.000000 0.000000 0.000000 0.000000
13184857.483420 5378112.548450 0.000000 5378112.548450 17242416.613237 0.000000 0.000000 0.000000 0.000000
11392058.562755 -5893354.210762 0.000000 -5893354.210762 18303304.717606 0.000000 0.000000 0.000000 0.000000
12005725.139103 -949312.190604 0.000000 -949312.190604 18721977.890944 0.000000 0.000000 0.000000 0.000000
17483788.870020 -1914181.403408 0.000000 -1914181.403408 23450088.432067 0.000000 0.000000 0.000000 0.000000
12038573.297088 4111223.899993 0.000000 4111223.899993 16592490.154465 0.000000 0.000000 0.000000 0.000000
10390910.206909 -2882033.736354 0.000000 -2882033.736354 19360096.030899 0.000000 0.000000 0.000000 0.000000
12867409.611658 4908854.383172 0.000000 4908854.383172 16860852.655661 0.000000 0.000000 0.000000 0.000000
16869339.677718 783132.291139 0.000000 783132.291139 23836514.296662 0.000000 0.000000 0.000000 0.000000
15004587.599073 2828014.975879 0.000000 2828014.975879 16135903.972042 0.000000 0.000000 0.000000 0.000000
3263606.344886 1473115.451942 0.000000 1473115.451942 5837258.659345 0.000000 0.000000 0.000000 0.000000
11755690.460377 4485366.920226 0.000000 4485366.920226 19158908.778100 0.000000 0.000000 0.000000 0.000000
11607910.205612 2831655.486142 0.000000 2831655.486142 11599093.353060 0.000000 0.000000 0.000000 0.000000
16482845.676502 1217362.037475 0.000000 1217362.037475 22350894.218399 0.000000 0.000000 0.000000 0.000000
16022773.539428 -4482068.901526 0.000000 -4482068.901526 23293529.235400 0.000000 0.000000 0.000000 0.000000
10647262.442924 -5516895.026704 0.000000 -5516895.026704 16284396.390530 0.000000 0.000000 0.000000 0.000000
16350937.848449 357774.147683 0.000000 357774.147683 23847438.318873 0.000000 0.000000 0.000000 0.000000
16184154.452744 1165804.205571 0.000000 1165804.205571 22865102.395629 0.000000 0.000000 0.000000 0.000000
12856784.776236 4256475.582504 0.000000 4256475.582504 15926192.965630 0.000000 0.000000 0.000000 0.000000
10550752.437289 -2018171.753109 0.000000 -2018171.753109 17710573.634833 0.000000 0.000000 0.000000 0.000000
13569569.109002 -2037404.583045 0.000000 -2037404.583045 20284570.949903 0.000000 0.000000 0.000000 0.000000
18891997.829823 1572385.167072 0.000000 1572385.167072 25093216.537185 0.000000 0.000000 0.000000 0.000000
17063183.761633 -3950550.893337 0.000000 -3950550.893337 23573551.330793 0.000000 0.000000 0.000000 0.000000
8695801.736232 -1847064.051895 0.000000 -1847064.051895 15761079.594411 0.000000 0.000000 0.000000 0.000000
10912939.773118 -3078339.851319 0.000000 -3078339.851319 17129262.291869 0.000000 0.000000 0.000000 0.000000
16635659.318595 406301.206888 0.000000 406301.206888 24860605.253095 0.000000 0.000000 0.000000 0.000000
11561560.303493 -4128138.420708 0.000000 -4128138.420708 16300818.970625 0.000000 0.000000 0.000000 0.000000
74440.300152 -6.445296 0.000000 -6.445296 212986.419790 0.000000 0.000000 0.000000 0.000000
14999518.456719 1597422.615207 0.000000 1597422.615207 20560561.598549 0.000000 0.000000 0.000000 0.000000
17895971.248059 1459931.451348 0.000000 1459931.451348 25378858.878617 0.000000 0.000000 0.000000 0.000000
16905640.123611 843966.051748 0.000000 843966.051748 24961680.850142 0.000000 0.000000 0.000000 0.000000
10218151.257765 4387921.634954 0.000000 4387921.634954 10604338.104002 0.000000 0.000000 0.000000 0.000000
16572904.771829 -4679682.759538 0.000000 -4679682.759538 23507886.365741 0.000000 0.000000 0.000000 0.000000
14515986.144164 1171479.496389 0.000000 1171479.496389 19688563.143110 0.000000 0.000000 0.000000 0.000000
13697651.544642 4222872.376999 0.000000 4222872.376999 18475835.979279 0.000000 0.000000 0.000000 0.000000
15937977.820403 -5410291.336867 0.000000 -5410291.336867 22761357.363098 0.000000 0.000000 0.000000 0.000000
10127608.679400 -4145372.683237 0.000000 -4145372.683237 15989295.298024 0.000000 0.000000 0.000000 0.000000
12128778.804745 3708684.268320 0.000000 3708684.268320 18469477.405842 0.000000 0.000000 0.000000 0.000000
16480355.719697 -2507770.550066 0.000000 -2507770.550066 22548472.961548 0.000000 0.000000 0.000000 0.000000
10369336.936106 -2800333.140940 0.000000 -2800333.140940 17442725.453351 0.000000 0.000000 0.000000 0.000000
16724782.382732 587433.192081 0.000000 587433.192081 24260144.249118 0.000000 0.000000 0.000000 0.000000
18117613.350478 1708283.872147 0.000000 1708283.872147 25453357.518543 0.000000 0.000000 0.000000 0.000000
12285243.203395 -4937136.853866 0.000000 -4937136.853866 16378318.553263 0.000000 0.000000 0.000000 0.000000
17844686.985361 -5094004.038967 0.000000 -5094004.038967 24482251.711805 0.000000 0.000000 0.000000 0.000000
15659899.895350 728130.064350 0.000000 728130.064350 22528230.323141 0.000000 0.000000 0.000000 0.000000
15248145.008399 1426780.387293 0.000000 1426780.387293 19924870.541659 0.000000 0.000000 0.000000 0.000000
6714636.680330 4335757.283321 0.000000 4335757.283321 10821830.733466 0.000000 0.000000 0.000000 0.000000
10549003.618543 -4660950.676980 0.000000 -4660950.676980 16730970.648398 0.000000 0.000000 0.000000 0.000000
18517215.179462 1520240.120139 0.000000 1520240.120139 25302523.587784 0.000000 0.000000 0.000000 0.000000
17342517.841431 243140.410509 0.000000 243140.410509 24588121.000763 0.000000 0.000000 0.000000 0.000000
10187725.747785 -2750495.910199 0.000000 -2750495.910199 18973647.129510 0.000000 0.000000 0.000000 0.000000
16950384.720017 -2045771.174574 0.000000 -2045771.174574 23019222.985844 0.000000 0.000000 0.000000 0.000000
10921350.161186 -2614435.655883 0.000000 -2614435.655883 17680803.270910 0.000000 0.000000 0.000000 0.000000
15741335.141071 1133621.863125 0.000000 1133621.863125 21872238.154909 0.000000 0.000000 0.000000 0.000000
15789915.574281 -148007.618293 0.000000 -148007.618293 23422137.226326 0.000000 0.000000 0.000000 0.000000
7397948.029844 362002.392221 0.000000 362002.392221 14318000.610461 0.000000 0.000000 0.000000 0.000000
9496876.170638 3656550.154710 0.000000 3656550.154710 9105971.267786 0.000000 0.000000 0.000000 0.000000
4894593.564577 -35161.812864 0.000000 -35161.812864 9032378.639564 0.000000 0.000000 0.000000 0.000000
10313342.731355 757200.553340 0.000000 757200.553340 14904429.189205 0.000000 0.000000 0.000000 0.000000
5542718.434035 -756301.447452 0.000000 -756301.447452 9323527.838761 0.000000 0.000000 0.000000 0.000000
9380375.767623 988652.618719 0.000000 988652.618719 16848306.052205 0.000000 0.000000 0.000000 0.000000
9716283.630915 -2395391.787088 0.000000 -2395391.787088 15329014.318029 0.000000 0.000000 0.000000 0.000000
7846561.217231 -1538278.751499 0.000000 -1538278.751499 13535651.806758 0.000000 0.000000 0.000000 0.000000
7011620.872014 -2752829.230382 0.000000 -2752829.230382 9918064.545258 0.000000 0.000000 0.000000 0.000000
9567661.256384 -2956787.844536 0.000000 -2956787.844536 16735251.909104 0.000000 0.000000 0.000000 0.000000
8671531.302457 1305550.730650 0.000000 1305550.730650 11375616.920281 0.000000 0.000000 0.000000 0.000000
7268004.996720 928912.007040 0.000000 928912.007040 14395884.364836 0.000000 0.000000 0.000000 0.000000
11014488.184201 1344688.653055 0.000000 1344688.653055 17919842.248427 0.000000 0.000000 0.000000 0.000000
6631396.975767 1189402.772858 0.000000 1189402.772858 13874752.241472 0.000000 0.000000 0.000000 0.000000
6344329.398260 -664320.744707 0.000000 -664320.744707 8879985.779342 0.000000 0.000000 0.000000 0.000000
10010150.841682 -4930965.500161 0.000000 -4930965.500161 10360376.703907 0.000000 0.000000 0.000000 0.000000
9340173.930491 -520174.049669 0.000000 -520174.049669 15657229.006235 0.000000 0.000000 0.000000 0.000000
6887641.839358 3935849.713200 0.000000 3935849.713200 9458590.767667 0.000000 0.000000 0.000000 0.000000
6132438.311608 3597929.774482 0.000000 3597929.774482 9926250.110133 0.000000 0.000000 0.000000 0.000000
9846849.071747 -200832.092089 0.000000 -200832.092089 16731859.128936 0.000000 0.000000 0.000000 0.000000
7675873.685793 1271014.809695 0.000000 1271014.809695 14252314.113932 0.000000 0.000000 0.000000 0.000000
13497151.281128 1712836.591601 0.000000 1712836.591601 19692818.028308 0.000000 0.000000 0.000000 0.000000
12437043.742117 878759.903841 0.000000 878759.903841 18237472.712390 0.000000 0.000000 0.000000 0.000000
4642844.755063 2435580.609633 0.000000 2435580.609633 8053696.116962 0.000000 0.000000 0.000000 0.000000
6687072.622196 1100037.020291 0.000000 1100037.020291 13884549.033350 0.000000 0.000000 0.000000 0.000000
8880590.767829 -3290415.655080 0.000000 -3290415.655080 13198554.635489 0.000000 0.000000 0.000000 0.000000
5320966.871822 -2079740.130478 0.000000 -2079740.130478 5559322.548208 0.000000 0.000000 0.000000 0.000000
9030480.651156 -3405230.953520 0.000000 -3405230.953520 14713684.794289 0.000000 0.000000 0.000000 0.000000
7137889.610743 689311.632817 0.000000 689311.632817 10424709.071886 0.000000 0.000000 0.000000 0.000000
5974295.055588 -2334828.113605 0.000000 -2334828.113605 5982369.224743 0.000000 0.000000 0.000000 0.000000
7483501.292675 -1212439.190104 0.000000 -1212439.190104 13102354.647510 0.000000 0.000000 0.000000 0.000000
8169223.164630 -3070180.890312 0.000000 -3070180.890312 12252955.495437 0.000000 0.000000 0.000000 0.000000
14111918.383896 887071.508695 0.000000 887071.508695 20173249.873972 0.000000 0.000000 0.000000 0.000000
5688689.079142 -22612.375664 0.000000 -22612.375664 10726684.784680 0.000000 0.000000 0.000000 0.000000
8818217.655921 -2872733.120321 0.000000 -2872733.120321 14580614.143958 0.000000 0.000000 0.000000 0.000000
9488970.258368 -1006589.829140 0.000000 -1006589.829140 15619174.140183 0.000000 0.000000 0.000000 0.000000
7663990.299534 -3174074.337102 0.000000 -3174074.337102 12367589.885581 0.000000 0.000000 0.000000 0.000000
6786181.031673 -993928.514518 0.000000 -993928.514518 10190655.642263 0.000000 0.000000 0.000000 0.000000
5670636.256268 -181630.577709 0.000000 -181630.577709 10491317.575804 0.000000 0.000000 0.000000 0.000000
7524597.752569 -3317560.260395 0.000000 -3317560.260395 11299000.353879 0.000000 0.000000 0.000000 0.000000
7481414.431212 -3296123.836945 0.000000 -3296123.836945 11623132.023016 0.000000 0.000000 0.000000 0.000000
12517292.582339 2887703.345476 0.000000 2887703.345476 13879845.308907 0.000000 0.000000 0.000000 0.000000
10076684.375847 -3280924.321523 0.000000 -3280924.321523 16591197.275936 0.000000 0.000000 0.000000 0.000000
10926399.895872 687958.433576 0.000000 687958.433576 18541321.957906 0.000000 0.000000 0.000000 0.000000
5891514.584923 -756808.486088 0.000000 -756808.486088 8009725.653397 0.000000 0.000000 0.000000 0.000000
9799315.717180 -5187507.899357 0.000000 -5187507.899357 16459082.740787 0.000000 0.000000 0.000000 0.000000
11034168.264396 1680728.594746 0.000000 1680728.594746 13280446.201233 0.000000 0.000000 0.000000 0.000000
8118712.615426 2627887.763384 0.000000 2627887.763384 8173687.477515 0.000000 0.000000 0.000000 0.000000
7800097.722725 -2839852.724393 0.000000 -2839852.724393 11927151.365539 0.000000 0.000000 0.000000 0.000000
6379166.633626 1035358.049210 0.000000 1035358.049210 12464961.009067 0.000000 0.000000 0.000000 0.000000
11519056.482033 965795.809752 0.000000 965795.809752 18989345.303517 0.000000 0.000000 0.000000 0.000000
11517924.295914 4250381.884370 0.000000 4250381.884370 14921369.693823 0.000000 0.000000 0.000000 0.000000
2300703.616495 961518.857085 0.000000 961518.857085 2474486.212006 0.000000 0.000000 0.000000 0.000000
10774845.554331 -5723120.120103 0.000000 -5723120.120103 17202353.732566 0.000000 0.000000 0.000000 0.000000
8195073.002512 -1511415.801323 0.000000 -1511415.801323 11776530.454205 0.000000 0.000000 0.000000 0.000000
7069272.103203 -2877308.960780 0.000000 -2877308.960780 10244049.059747 0.000000 0.000000 0.000000 0.000000
9053494.150063 -2666961.172170 0.000000 -2666961.172170 15460288.002921 0.000000 0.000000 0.000000 0.000000
9259874.678959 -2129457.302940 0.000000 -2129457.302940 14177286.072425 0.000000 0.000000 0.000000 0.000000
13954457.005481 1035069.068053 0.000000 1035069.068053 19793153.608765 0.000000 0.000000 0.000000 0.000000
12289832.425533 3962316.867486 0.000000 3962316.867486 17331154.977746 0.000000 0.000000 0.000000 0.000000
9169592.233757 1444463.521311 0.000000 1444463.521311 16311276.109361 0.000000 0.000000 0.000000 0.000000
2869607.221385 1454017.243003 0.000000 1454017.243003 3934982.595895 0.000000 0.000000 0.000000 0.000000
6585760.666335 -1698011.939976 0.000000 -1698011.939976 10852775.652273 0.000000 0.000000 0.000000 0.000000
9480272.991903 -4715120.274127 0.000000 -4715120.274127 10635498.346759 0.000000 0.000000 0.000000 0.000000
4035227.610733 2479170.000824 0.000000 2479170.000824 6080928.951778 0.000000 0.000000 0.000000 0.000000
11829483.005651 3905657.457542 0.000000 3905657.457542 16090984.143025 0.000000 0.000000 0.000000 0.000000
9177134.454490 3368359.043510 0.000000 3368359.043510 13330699.072781 0.000000 0.000000 0.000000 0.000000
8725843.825328 4315847.887420 0.000000 4315847.887420 9598596.472487 0.000000 0.000000 0.000000 0.000000
7637890.072310 -488676.943909 0.000000 -488676.943909 13234043.171970 0.000000 0.000000 0.000000 0.000000
10450322.577999 362418.651727 0.000000 362418.651727 18359216.612538 0.000000 0.000000 0.000000 0.000000
8251901.973369 -1573853.485083 0.000000 -1573853.485083 14562081.933413 0.000000 0.000000 0.000000 0.000000
8632720.001787 875352.256090 0.000000 875352.256090 16027949.156469 0.000000 0.000000 0.000000 0.000000
6368260.182529 -2938701.422544 0.000000 -2938701.422544 7913348.792948 0.000000 0.000000 0.000000 0.000000
8821414.333362 -1977994.477387 0.000000 -1977994.477387 14212911.077036 0.000000 0.000000 0.000000 0.000000
7864852.859002 250706.130059 0.000000 250706.130059 14928167.275415 0.000000 0.000000 0.000000 0.000000
3564411.399799 2110759.174256 0.000000 2110759.174256 5294434.285280 0.000000 0.000000 0.000000 0.000000
9040080.072482 622746.389141 0.000000 622746.389141 13331804.972421 0.000000 0.000000 0.000000 0.000000
10900724.384369 -368318.357123 0.000000 -368318.357123 17737228.076329 0.000000 0.000000 0.000000 0.000000
8565797.549591 -4059807.150488 0.000000 -4059807.150488 11200320.038403 0.000000 0.000000 0.000000 0.000000
6977162.267630 -3095155.266156 0.000000 -3095155.266156 12221960.767948 0.000000 0.000000 0.000000 0.000000
9345180.202171 586836.311886 0.000000 586836.311886 16718261.464050 0.000000 0.000000 0.000000 0.000000
7669531.080780 2446937.625587 0.000000 2446937.625587 11012277.904450 0.000000 0.000000 0.000000 0.000000
9090221.983833 -1956131.812045 0.000000 -1956131.812045 13355021.533133 0.000000 0.000000 0.000000 0.000000
13387507.135093 273741.464469 0.000000 273741.464469 20388722.234048 0.000000 0.000000 0.000000 0.000000
7086369.686938 -169207.701513 0.000000 -169207.701513 12858813.967501 0.000000 0.000000 0.000000 0.000000
8001132.928490 -3393612.440548 0.000000 -3393612.440548 13006794.623318 0.000000 0.000000 0.000000 0.000000
8717097.504191 -4336818.159535 0.000000 -4336818.159535 9557290.237649 0.000000 0.000000 0.000000 0.000000
12994646.788298 3890642.077442 0.000000 3890642.077442 16260423.855449 0.000000 0.000000 0.000000 0.000000
9025202.198039 -3873938.558369 0.000000 -3873938.558369 13635924.242038 0.000000 0.000000 0.000000 0.000000
6682866.000696 -353219.525751 0.000000 -353219.525751 11821262.585029 0.000000 0.000000 0.000000 0.000000
12078111.399211 1950690.937678 0.000000 1950690.937678 14372130.805657 0.000000 0.000000 0.000000 0.000000
10727099.167806 3677815.819547 0.000000 3677815.819547 9660627.409404 0.000000 0.000000 0.000000 0.000000
8307564.467012 -834805.975639 0.000000 -834805.975639 14123867.499245 0.000000 0.000000 0.000000 0.000000
8127611.009308 663665.927051 0.000000 663665.927051 15805163.993013 0.000000 0.000000 0.000000 0.000000
7949273.042694 941821.829521 0.000000 941821.829521 10646271.952780 0.000000 0.000000 0.000000 0.000000
8277529.419261 -2358870.017938 0.000000 -2358870.017938 13743578.261205 0.000000 0.000000 0.000000 0.000000
10885301.369849 3746350.477016 0.000000 3746350.477016 13506005.743132 0.000000 0.000000 0.000000 0.000000
10821273.956245 1486640.016548 0.000000 1486640.016548 13632582.700824 0.000000 0.000000 0.000000 0.000000
10713500.676805 2584083.447050 0.000000 2584083.447050 10930391.784178 0.000000 0.000000 0.000000 0.000000
8394479.518577 120214.638880 0.000000 120214.638880 15211578.737650 0.000000 0.000000 0.000000 0.000000
10043049.296623 3154577.939344 0.000000 3154577.939344 13833921.079153 0.000000 0.000000 0.000000 0.000000
11135536.087558 3641443.369241 0.000000 3641443.369241 14931832.615286 0.000000 0.000000 0.000000 0.000000
10899480.367770 3138335.348315 0.000000 3138335.348315 10281163.972904 0.000000 0.000000 0.000000 0.000000
10569765.061252 -2870407.500441 0.000000 -2870407.500441 18254169.377027 0.000000 0.000000 0.000000 0.000000
13379570.251002 1908098.011791 0.000000 1908098.011791 19939782.386313 0.000000 0.000000 0.000000 0.000000
9726618.071242 317244.331328 0.000000 317244.331328 17077503.235943 0.000000 0.000000 0.000000 0.000000
9188548.544685 2978402.562285 0.000000 2978402.562285 12933461.255274 0.000000 0.000000 0.000000 0.000000
12384408.918544 909437.998406 0.000000 909437.998406 17874675.643885 0.000000 0.000000 0.000000 0.000000
9537550.111849 -4567703.785424 0.000000 -4567703.785424 9739529.014595 0.000000 0.000000 0.000000 0.000000
12026629.031293 4190016.410487 0.000000 4190016.410487 17262682.371777 0.000000 0.000000 0.000000 0.000000
11707371.709386 3941767.744023 0.000000 3941767.744023 16013852.170852 0.000000 0.000000 0.000000 0.000000
13694267.655369 4099776.980442 0.000000 4099776.980442 18000296.665388 0.000000 0.000000 0.000000 0.000000
9123395.782861 -2069193.888526 0.000000 -2069193.888526 13891942.394428 0.000000 0.000000 0.000000 0.000000
10439673.152015 7845327.385179 0.000000 7845327.385179 14089411.018324 0.000000 0.000000 0.000000 0.000000
6656557.648981 -1108164.597912 0.000000 -1108164.597912 11956412.512470 0.000000 0.000000 0.000000 0.000000
8691692.902803 -3413395.501442 0.000000 -3413395.501442 14081123.418664 0.000000 0.000000 0.000000 0.000000
13313114.589197 935444.682941 0.000000 935444.682941 19142166.111409 0.000000 0.000000 0.000000 0.000000
12441211.272150 1975748.863460 0.000000 1975748.863460 19503646.429761 0.000000 0.000000 0.000000 0.000000
9642310.929952 -392500.773753 0.000000 -392500.773753 16245972.280563 0.000000 0.000000 0.000000 0.000000
13979876.709934 1069040.789993 0.000000 1069040.789993 20207418.897995 0.000000 0.000000 0.000000 0.000000
11835024.954887 3936908.294365 0.000000 3936908.294365 18251449.776826 0.000000 0.000000 0.000000 0.000000
7944437.246194 558571.231616 0.000000 558571.231616 11452323.130503 0.000000 0.000000 0.000000 0.000000
6520985.049424 199719.232962 0.000000 199719.232962 12217312.883115 0.000000 0.000000 0.000000 0.000000
7316998.977261 1137148.366070 0.000000 1137148.366070 14059686.565033 0.000000 0.000000 0.000000 0.000000
4044150.958863 2009723.819538 0.000000 2009723.819538 7113390.135808 0.000000 0.000000 0.000000 0.000000
5799227.686254 210799.950890 0.000000 210799.950890 10200521.401939 0.000000 0.000000 0.000000 0.000000
8769884.223551 -1929589.159160 0.000000 -1929589.159160 15266279.310270 0.000000 0.000000 0.000000 0.000000
12138084.334909 1028977.527277 0.000000 1028977.527277 16911812.078331 0.000000 0.000000 0.000000 0.000000
9147665.820596 -2383776.985340 0.000000 -2383776.985340 14883175.707120 0.000000 0.000000 0.000000 0.000000
10881115.006128 -2984375.605531 0.000000 -2984375.605531 18279929.793464 0.000000 0.000000 0.000000 0.000000
9668929.135366 4372852.698616 0.000000 4372852.698616 10221120.337767 0.000000 0.000000 0.000000 0.000000
8176355.338086 670536.486451 0.000000 670536.486451 12111730.886784 0.000000 0.000000 0.000000 0.000000
12076486.381651 4095754.970296 0.000000 4095754.970296 16133028.335689 0.000000 0.000000 0.000000 0.000000
11591677.604956 3996608.950292 0.000000 3996608.950292 15379018.647349 0.000000 0.000000 0.000000 0.000000
7061476.426733 1337010.919790 0.000000 1337010.919790 13441243.899388 0.000000 0.000000 0.000000 0.000000
6804220.097920 -3034803.988786 0.000000 -3034803.988786 12399161.896226 0.000000 0.000000 0.000000 0.000000
7475881.756894 769974.907535 0.000000 769974.907535 14890495.476719 0.000000 0.000000 0.000000 0.000000
7402842.464955 -2693026.066448 0.000000 -2693026.066448 11342699.915425 0.000000 0.000000 0.000000 0.000000
8902312.316218 -3889881.908671 0.000000 -3889881.908671 14421950.374983 0.000000 0.000000 0.000000 0.000000
11035911.370324 1044422.382270 0.000000 1044422.382270 15239534.751194 0.000000 0.000000 0.000000 0.000000
7669193.644715 685876.175508 0.000000 685876.175508 10492625.656139 0.000000 0.000000 0.000000 0.000000
9301122.657186 1577716.519687 0.000000 1577716.519687 11746889.723693 0.000000 0.000000 0.000000 0.000000
11195858.799025 1533470.556586 0.000000 1533470.556586 17936081.869169 0.000000 0.000000 0.000000 0.000000
10635566.985167 448128.645201 0.000000 448128.645201 17949830.436650 0.000000 0.000000 0.000000 0.000000
11420908.144254 2368368.953098 0.000000 2368368.953098 13693205.927578 0.000000 0.000000 0.000000 0.000000
7863595.857791 5702607.323849 0.000000 5702607.323849 11215806.522368 0.000000 0.000000 0.000000 0.000000
8143824.302626 -1219847.383778 0.000000 -1219847.383778 14125553.657316 0.000000 0.000000 0.000000 0.000000
7465315.791469 -2239387.759224 0.000000 -2239387.759224 12450269.738971 0.000000 0.000000 0.000000 0.000000
13055705.337072 -1658456.914926 0.000000 -1658456.914926 19740994.828457 0.000000 0.000000 0.000000 0.000000
6239644.463955 -999000.530143 0.000000 -999000.530143 10972772.203100 0.000000 0.000000 0.000000 0.000000
9571118.918900 -2360892.414291 0.000000 -2360892.414291 17262735.505746 0.000000 0.000000 0.000000 0.000000
8973684.333389 479387.470276 0.000000 479387.470276 16696162.032368 0.000000 0.000000 0.000000 0.000000
12075754.053876 3593064.339511 0.000000 3593064.339511 14509938.989917 0.000000 0.000000 0.000000 0.000000
11753321.839546 1792761.599767 0.000000 1792761.599767 18741199.178298 0.000000 0.000000 0.000000 0.000000
6692499.663207 -921170.912515 0.000000 -921170.912515 11449421.431428 0.000000 0.000000 0.000000 0.000000
6795647.158657 -959710.207970 0.000000 -959710.207970 9686706.178975 0.000000 0.000000 0.000000 0.000000
6738016.816544 -557707.217548 0.000000 -557707.217548 11609701.242426 0.000000 0.000000 0.000000 0.000000
3564316.512451 2119563.010210 0.000000 2119563.010210 5188129.920500 0.000000 0.000000 0.000000 0.000000
9382446.067104 -3007345.260441 0.000000 -3007345.260441 15662469.505805 0.000000 0.000000 0.000000 0.000000
6215081.643700 65112.836508 0.000000 65112.836508 11910492.664657 0.000000 0.000000 0.000000 0.000000
12129894.003652 1471172.871202 0.000000 1471172.871202 15574300.538273 0.000000 0.000000 0.000000 0.000000
8367534.927755 773187.431173 0.000000 773187.431173 15148064.275415 0.000000 0.000000 0.000000 0.000000
8704889.792919 886749.830087 0.000000 886749.830087 13685778.447858 0.000000 0.000000 0.000000 0.000000
8850501.843405 -2253263.333822 0.000000 -2253263.333822 14214373.851247 0.000000 0.000000 0.000000 0.000000
9668267.786399 -4711272.930087 0.000000 -4711272.930087 14870061.916503 0.000000 0.000000 0.000000 0.000000
8552430.430795 -2717145.078618 0.000000 -2717145.078618 14333544.532442 0.000000 0.000000 0.000000 0.000000
7428413.834748 -3613705.397164 0.000000 -3613705.397164 8596199.141720 0.000000 0.000000 0.000000 0.000000
7500977.225852 -689263.013728 0.000000 -689263.013728 12852479.501340 0.000000 0.000000 0.000000 0.000000
7437545.388199 -1860830.160233 0.000000 -1860830.160233 12148488.447706 0.000000 0.000000 0.000000 0.000000
8421405.711925 1012842.051448 0.000000 1012842.051448 14385898.556157 0.000000 0.000000 0.000000 0.000000
7300582.331023 910227.374508 0.000000 910227.374508 9769228.852314 0.000000 0.000000 0.000000 0.000000
9950846.012723 -5354772.231556 0.000000 -5354772.231556 16326657.546038 0.000000 0.000000 0.000000 0.000000
10251756.768670 2749238.703241 0.000000 2749238.703241 13329742.391655 0.000000 0.000000 0.000000 0.000000
4095280.885390 2130845.664026 0.000000 2130845.664026 6274187.234472 0.000000 0.000000 0.000000 0.000000
9752354.200033 -2358853.063901 0.000000 -2358853.063901 14904032.292236 0.000000 0.000000 0.000000 0.000000
11138936.996377 3377425.888434 0.000000 3377425.888434 14721986.080000 0.000000 0.000000 0.000000 0.000000
10237845.065846 -1563621.507051 0.000000 -1563621.507051 17179841.753557 0.000000 0.000000 0.000000 0.000000
3965529.037897 2321526.262469 0.000000 2321526.262469 5937842.691431 0.000000 0.000000 0.000000 0.000000
13395204.739430 1266086.729498 0.000000 1266086.729498 19605139.467525 0.000000 0.000000 0.000000 0.000000
11479715.225064 -3172170.239171 0.000000 -3172170.239171 18500984.510815 0.000000 0.000000 0.000000 0.000000
8327356.907815 -3846973.064819 0.000000 -3846973.064819 12743737.788552 0.000000 0.000000 0.000000 0.000000
9258449.515311 1352915.290370 0.000000 1352915.290370 15990293.660622 0.000000 0.000000 0.000000 0.000000
9769796.339301 631118.416589 0.000000 631118.416589 16357638.184024 0.000000 0.000000 0.000000 0.000000
5784806.007688 3333832.383558 0.000000 3333832.383558 10496841.983251 0.000000 0.000000 0.000000 0.000000
9233242.041242 2715320.514255 0.000000 2715320.514255 12574374.670065 0.000000 0.000000 0.000000 0.000000
9390886.161298 4819276.425901 0.000000 4819276.425901 10594776.747782 0.000000 0.000000 0.000000 0.000000
8082578.952692 -1878796.670239 0.000000 -1878796.670239 12812241.015109 0.000000 0.000000 0.000000 0.000000
9928648.280870 -2862413.760094 0.000000 -2862413.760094 18101266.098474 0.000000 0.000000 0.000000 0.000000
10867940.888387 -5472247.140058 0.000000 -5472247.140058 17620405.531250 0.000000 0.000000 0.000000 0.000000
9255347.286391 6382972.605624 0.000000 6382972.605624 12016635.210791 0.000000 0.000000 0.000000 0.000000
8023475.356218 1113115.061609 0.000000 1113115.061609 13795163.937052 0.000000 0.000000 0.000000 0.000000
11903188.915101 936687.135220 0.000000 936687.135220 16897022.224405 0.000000 0.000000 0.000000 0.000000
5459185.794795 -380432.157340 0.000000 -380432.157340 9343737.478504 0.000000 0.000000 0.000000 0.000000
6577586.221864 -976577.653385 0.000000 -976577.653385 11068040.192737 0.000000 0.000000 0.000000 0.000000
8488003.880040 6178947.817754 0.000000 6178947.817754 11520558.615183 0.000000 0.000000 0.000000 0.000000
8746250.509796 -3036575.245729 0.000000 -3036575.245729 13712559.180535 0.000000 0.000000 0.000000 0.000000
8536356.346624 -1747465.091117 0.000000 -1747465.091117 12971590.645241 0.000000 0.000000 0.000000 0.000000
5355986.796517 30835.112696 0.000000 30835.112696 10205946.062491 0.000000 0.000000 0.000000 0.000000
10653793.341887 -3333734.851842 0.000000 -3333734.851842 17307257.420337 0.000000 0.000000 0.000000 0.000000
10124575.780521 -2654747.934109 0.000000 -2654747.934109 17378372.656970 0.000000 0.000000 0.000000 0.000000
6629885.349783 -3731231.318890 0.000000 -3731231.318890 10664473.909176 0.000000 0.000000 0.000000 0.000000
7121570.014198 3167532.988908 0.000000 3167532.988908 10888846.126588 0.000000 0.000000 0.000000 0.000000
4717243.269578 -470456.911843 0.000000 -470456.911843 6194142.679592 0.000000 0.000000 0.000000 0.000000
8806873.773610 3078280.112916 0.000000 3078280.112916 10867034.595284 0.000000 0.000000 0.000000 0.000000
8909053.686362 -4803749.743607 0.000000 -4803749.743607 14756788.785832 0.000000 0.000000 0.000000 0.000000
6492346.430780 1822563.250385 0.000000 1822563.250385 8651807.798062 0.000000 0.000000 0.000000 0.000000
4961541.509717 -2406903.632848 0.000000 -2406903.632848 6271973.684689 0.000000 0.000000 0.000000 0.000000
12108232.037323 4020939.944724 0.000000 4020939.944724 15761410.509774 0.000000 0.000000 0.000000 0.000000
6255396.262831 -2488817.635358 0.000000 -2488817.635358 8733202.028311 0.000000 0.000000 0.000000 0.000000
3279639.604826 -231953.200034 0.000000 -231953.200034 4870454.302213 0.000000 0.000000 0.000000 0.000000
5243420.925456 789721.963388 0.000000 789721.963388 8294051.357811 0.000000 0.000000 0.000000 0.000000
6059071.123319 1350773.605808 0.000000 1350773.605808 12482821.178087 0.000000 0.000000 0.000000 0.000000
6099458.143764 541451.723711 0.000000 541451.723711 11129720.348844 0.000000 0.000000 0.000000 0.000000
4970300.663665 -1902387.662089 0.000000 -1902387.662089 6800265.418050 0.000000 0.000000 0.000000 0.000000
6216346.290951 -2194410.064561 0.000000 -2194410.064561 9616632.750140 0.000000 0.000000 0.000000 0.000000
4325704.599305 -236271.824053 0.000000 -236271.824053 6432370.641802 0.000000 0.000000 0.000000 0.000000
5366713.995483 1735875.621755 0.000000 1735875.621755 6899265.437291 0.000000 0.000000 0.000000 0.000000
3813083.769535 -1655416.285119 0.000000 -1655416.285119 3960888.057029 0.000000 0.000000 0.000000 0.000000
6713122.300388 1448209.390106 0.000000 1448209.390106 11946672.516799 0.000000 0.000000 0.000000 0.000000
5988906.035327 -2200466.367598 0.000000 -2200466.367598 9062236.462153 0.000000 0.000000 0.000000 0.000000
2516747.574993 -1357391.493807 0.000000 -1357391.493807 2401216.965299 0.000000 0.000000 0.000000 0.000000
5318320.877540 2310252.166686 0.000000 2310252.166686 7963644.534727 0.000000 0.000000 0.000000 0.000000
5299893.689155 -2998721.957598 0.000000 -2998721.957598 8566351.400292 0.000000 0.000000 0.000000 0.000000
3112445.031087 1793826.809279 0.000000 1793826.809279 4553610.966482 0.000000 0.000000 0.000000 0.000000
7417181.246104 -3471556.108045 0.000000 -3471556.108045 12393558.894912 0.000000 0.000000 0.000000 0.000000
3188834.869440 986777.750142 0.000000 986777.750142 5747437.898224 0.000000 0.000000 0.000000 0.000000
4097355.873617 -211138.336056 0.000000 -211138.336056 6347292.400855 0.000000 0.000000 0.000000 0.000000
4592704.268455 -289013.330310 0.000000 -289013.330310 7552947.763594 0.000000 0.000000 0.000000 0.000000
7516631.081764 1763078.614191 0.000000 1763078.614191 10207413.229932 0.000000 0.000000 0.000000 0.000000
3187889.792742 -1529078.976941 0.000000 -1529078.976941 3241884.029578 0.000000 0.000000 0.000000 0.000000
4987927.230939 -139769.651647 0.000000 -139769.651647 8479405.274226 0.000000 0.000000 0.000000 0.000000
5691082.376569 -3176927.326394 0.000000 -3176927.326394 9108399.989946 0.000000 0.000000 0.000000 0.000000
2717104.227662 1548030.034122 0.000000 1548030.034122 4065384.820860 0.000000 0.000000 0.000000 0.000000
6404446.510220 -2096209.518007 0.000000 -2096209.518007 10332618.289643 0.000000 0.000000 0.000000 0.000000
4128262.145327 470987.432096 0.000000 470987.432096 6064907.493363 0.000000 0.000000 0.000000 0.000000
3430370.871442 -1528619.315827 0.000000 -1528619.315827 3672250.461292 0.000000 0.000000 0.000000 0.000000
5810327.484720 965039.980109 0.000000 965039.980109 8459830.321520 0.000000 0.000000 0.000000 0.000000
7000411.405486 -3090034.679398 0.000000 -3090034.679398 10972531.910179 0.000000 0.000000 0.000000 0.000000
6897765.606735 2407129.288022 0.000000 2407129.288022 9822750.778231 0.000000 0.000000 0.000000 0.000000
3769896.858282 1156586.488709 0.000000 1156586.488709 7130970.889214 0.000000 0.000000 0.000000 0.000000
8845115.548629 2353968.180121 0.000000 2353968.180121 9042232.713747 0.000000 0.000000 0.000000 0.000000
7690586.352073 -3897892.219095 0.000000 -3897892.219095 11992835.429249 0.000000 0.000000 0.000000 0.000000
9167509.051747 -4228193.991563 0.000000 -4228193.991563 9239210.254444 0.000000 0.000000 0.000000 0.000000
5734411.999065 -498218.901302 0.000000 -498218.901302 8003612.274357 0.000000 0.000000 0.000000 0.000000
2990337.609112 1674898.205081 0.000000 1674898.205081 4402241.876611 0.000000 0.000000 0.000000 0.000000
4709747.486174 -486169.499507 0.000000 -486169.499507 7358328.391806 0.000000 0.000000 0.000000 0.000000
4955918.617082 -549741.786571 0.000000 -549741.786571 7668168.939309 0.000000 0.000000 0.000000 0.000000
2657621.210169 -13452.839058 0.000000 -13452.839058 3752699.751091 0.000000 0.000000 0.000000 0.000000
8233385.909918 3319454.217722 0.000000 3319454.217722 12309059.858590 0.000000 0.000000 0.000000 0.000000
5251357.686810 1401162.378263 0.000000 1401162.378263 10151019.225258 0.000000 0.000000 0.000000 0.000000
3174434.042294 1749993.115545 0.000000 1749993.115545 4601118.924386 0.000000 0.000000 0.000000 0.000000
8944509.806709 2397894.301549 0.000000 2397894.301549 9519923.718168 0.000000 0.000000 0.000000 0.000000
6117135.037345 -614546.025378 0.000000 -614546.025378 8994405.151004 0.000000 0.000000 0.000000 0.000000
5881272.303073 2253585.928672 0.000000 2253585.928672 6428930.834427 0.000000 0.000000 0.000000 0.000000
5298058.669790 185069.837201 0.000000 185069.837201 8923858.858789 0.000000 0.000000 0.000000 0.000000
2857239.166621 1535944.146274 0.000000 1535944.146274 4114092.016288 0.000000 0.000000 0.000000 0.000000
5341664.285721 2617507.064801 0.000000 2617507.064801 6562929.354060 0.000000 0.000000 0.000000 0.000000
4098897.576822 -249903.973724 0.000000 -249903.973724 6829504.353269 0.000000 0.000000 0.000000 0.000000
2325944.374720 979409.528843 0.000000 979409.528843 2541397.137680 0.000000 0.000000 0.000000 0.000000
6166720.161957 2436317.795055 0.000000 2436317.795055 8899392.131917 0.000000 0.000000 0.000000 0.000000
11630857.642475 3124121.873176 0.000000 3124121.873176 13275767.998009 0.000000 0.000000 0.000000 0.000000
5412503.821900 -757448.348432 0.000000 -757448.348432 6663491.853294 0.000000 0.000000 0.000000 0.000000
6891053.981370 -2900644.876214 0.000000 -2900644.876214 7004832.917483 0.000000 0.000000 0.000000 0.000000
5530046.755272 1200307.412167 0.000000 1200307.412167 7165805.417548 0.000000 0.000000 0.000000 0.000000
5000937.105410 413824.724018 0.000000 413824.724018 8308446.223644 0.000000 0.000000 0.000000 0.000000
3538200.912049 1743228.538049 0.000000 1743228.538049 4945103.978561 0.000000 0.000000 0.000000 0.000000
9548847.161901 2900192.071976 0.000000 2900192.071976 11092536.576675 0.000000 0.000000 0.000000 0.000000
6400198.048831 1346689.135684 0.000000 1346689.135684 8394427.646663 0.000000 0.000000 0.000000 0.000000
4967814.865002 1181176.651090 0.000000 1181176.651090 8142392.658926 0.000000 0.000000 0.000000 0.000000
6311902.216937 2679259.045279 0.000000 2679259.045279 8945223.331542 0.000000 0.000000 0.000000 0.000000
4757973.343613 1052098.354130 0.000000 1052098.354130 7273190.835669 0.000000 0.000000 0.000000 0.000000
4093435.667685 -249320.757567 0.000000 -249320.757567 6615766.965952 0.000000 0.000000 0.000000 0.000000
8612090.997802 3716465.481144 0.000000 3716465.481144 12634704.549717 0.000000 0.000000 0.000000 0.000000
8332473.532601 2961513.020085 0.000000 2961513.020085 12137997.246940 0.000000 0.000000 0.000000 0.000000
5818203.498533 -2696980.568739 0.000000 -2696980.568739 7541786.236790 0.000000 0.000000 0.000000 0.000000
7552329.818635 2259468.112502 0.000000 2259468.112502 8543400.640269 0.000000 0.000000 0.000000 0.000000
5044139.990285 -539806.482293 0.000000 -539806.482293 6692831.391150 0.000000 0.000000 0.000000 0.000000
9637298.937580 4020325.667945 0.000000 4020325.667945 13197863.891506 0.000000 0.000000 0.000000 0.000000
6806254.227225 928427.256737 0.000000 928427.256737 12973717.803928 0.000000 0.000000 0.000000 0.000000
7256278.056497 3113124.051446 0.000000 3113124.051446 7721457.735213 0.000000 0.000000 0.000000 0.000000
5915404.058317 1298921.525790 0.000000 1298921.525790 11867113.295115 0.000000 0.000000 0.000000 0.000000
6137093.177155 -2532636.207281 0.000000 -2532636.207281 8634474.700896 0.000000 0.000000 0.000000 0.000000
6513394.686418 -3140294.773287 0.000000 -3140294.773287 10342820.613298 0.000000 0.000000 0.000000 0.000000
7966291.466952 -4059500.753182 0.000000 -4059500.753182 13564559.566980 0.000000 0.000000 0.000000 0.000000
7082571.186872 3589875.203426 0.000000 3589875.203426 8431416.708092 0.000000 0.000000 0.000000 0.000000
6095940.023340 -1203812.042159 0.000000 -1203812.042159 9013614.692388 0.000000 0.000000 0.000000 0.000000
5222485.970009 1307449.298417 0.000000 1307449.298417 9526986.618528 0.000000 0.000000 0.000000 0.000000
2962118.071231 82539.714559 0.000000 82539.714559 4075895.691569 0.000000 0.000000 0.000000 0.000000
4268633.034352 -226199.621663 0.000000 -226199.621663 6974729.875543 0.000000 0.000000 0.000000 0.000000
5055707.065571 -696406.332079 0.000000 -696406.332079 6035358.244548 0.000000 0.000000 0.000000 0.000000
4188085.435861 1975775.056149 0.000000 1975775.056149 5690833.420025 0.000000 0.000000 0.000000 0.000000
2884168.892600 -264627.906124 0.000000 -264627.906124 4809740.460038 0.000000 0.000000 0.000000 0.000000
7207840.336322 3234861.049751 0.000000 3234861.049751 10816180.115508 0.000000 0.000000 0.000000 0.000000
2485396.279368 1418815.073136 0.000000 1418815.073136 3798926.198717 0.000000 0.000000 0.000000 0.000000
6781001.400897 82745.119473 0.000000 82745.119473 12927056.220428 0.000000 0.000000 0.000000 0.000000
5518283.185292 -2792658.702470 0.000000 -2792658.702470 8090584.361487 0.000000 0.000000 0.000000 0.000000
7682688.529441 2821184.118002 0.000000 2821184.118002 11259764.770655 0.000000 0.000000 0.000000 0.000000
4653351.794700 -1836535.539292 0.000000 -1836535.539292 4867025.239368 0.000000 0.000000 0.000000 0.000000
2485912.129380 1114160.519731 0.000000 1114160.519731 2959199.273127 0.000000 0.000000 0.000000 0.000000
7816823.129769 -2553719.250763 0.000000 -2553719.250763 12714210.549614 0.000000 0.000000 0.000000 0.000000
4971497.708011 -2055733.246359 0.000000 -2055733.246359 6373971.823582 0.000000 0.000000 0.000000 0.000000
5905356.842403 -1038120.004689 0.000000 -1038120.004689 7701388.714536 0.000000 0.000000 0.000000 0.000000
5456908.716376 -978094.682232 0.000000 -978094.682232 6514465.652739 0.000000 0.000000 0.000000 0.000000
6832903.817647 656222.461133 0.000000 656222.461133 9193103.511891 0.000000 0.000000 0.000000 0.000000
3360004.159663 -92558.629886 0.000000 -92558.629886 5127449.827619 0.000000 0.000000 0.000000 0.000000
6892686.190715 2640510.158234 0.000000 2640510.158234 9040545.537762 0.000000 0.000000 0.000000 0.000000
7271410.248224 1339749.262769 0.000000 1339749.262769 9722381.195300 0.000000 0.000000 0.000000 0.000000
3893289.743680 -248653.197769 0.000000 -248653.197769 6214767.120369 0.000000 0.000000 0.000000 0.000000
5619023.316945 1368503.321967 0.000000 1368503.321967 11316430.265614 0.000000 0.000000 0.000000 0.000000
2672877.321827 1272276.730082 0.000000 1272276.730082 3431738.145586 0.000000 0.000000 0.000000 0.000000
10344462.765797 3984785.319934 0.000000 3984785.319934 13448375.474127 0.000000 0.000000 0.000000 0.000000
4952835.497500 -2003981.478722 0.000000 -2003981.478722 5013735.768528 0.000000 0.000000 0.000000 0.000000
4465305.934697 -110175.323386 0.000000 -110175.323386 7219757.316926 0.000000 0.000000 0.000000 0.000000
7278919.309948 -3750983.619573 0.000000 -3750983.619573 11384999.009955 0.000000 0.000000 0.000000 0.000000
6551238.886174 -2984298.834169 0.000000 -2984298.834169 9868180.866067 0.000000 0.000000 0.000000 0.000000
3167876.734440 1693696.400540 0.000000 1693696.400540 4431060.946905 0.000000 0.000000 0.000000 0.000000
5650352.728469 2497883.176028 0.000000 2497883.176028 6470168.607574 0.000000 0.000000 0.000000 0.000000
6300794.680759 -2726884.893476 0.000000 -2726884.893476 9215265.557534 0.000000 0.000000 0.000000 0.000000
2812031.009847 -1435610.603317 0.000000 -1435610.603317 2771331.100500 0.000000 0.000000 0.000000 0.000000
3452715.453766 -1568517.368766 0.000000 -1568517.368766 3603864.906505 0.000000 0.000000 0.000000 0.000000
4293711.921902 1171274.594975 0.000000 1171274.594975 7642717.527181 0.000000 0.000000 0.000000 0.000000
8949499.069310 978271.617154 0.000000 978271.617154 12284236.312630 0.000000 0.000000 0.000000 0.000000
7059473.884760 -1520801.416152 0.000000 -1520801.416152 11230391.295877 0.000000 0.000000 0.000000 0.000000
7021436.249517 140028.770703 0.000000 140028.770703 13506328.231345 0.000000 0.000000 0.000000 0.000000
5983161.096288 1439176.480648 0.000000 1439176.480648 10775563.929224 0.000000 0.000000 0.000000 0.000000
5013765.629789 2741953.468050 0.000000 2741953.468050 8771260.501566 0.000000 0.000000 0.000000 0.000000
4342643.809631 1270227.747164 0.000000 1270227.747164 8267913.953886 0.000000 0.000000 0.000000 0.000000
86296.914347 0.000000 0.000000 0.000000 212985.851544 0.000000 0.000000 0.000000 0.000000
5237934.348227 2743348.911627 0.000000 2743348.911627 7380675.022241 0.000000 0.000000 0.000000 0.000000
4083487.484160 1021062.775208 0.000000 1021062.775208 6350140.324688 0.000000 0.000000 0.000000 0.000000
5442424.419099 -636845.656600 0.000000 -636845.656600 9151632.587657 0.000000 0.000000 0.000000 0.000000
7180160.009504 -2314738.027366 0.000000 -2314738.027366 11801452.802728 0.000000 0.000000 0.000000 0.000000
7418896.903519 113513.243226 0.000000 113513.243226 13898472.489913 0.000000 0.000000 0.000000 0.000000
6247812.601711 1577100.191706 0.000000 1577100.191706 8114604.595466 0.000000 0.000000 0.000000 0.000000
6969206.580071 775588.235124 0.000000 775588.235124 13134237.742822 0.000000 0.000000 0.000000 0.000000
4922079.818405 -561327.704752 0.000000 -561327.704752 7908636.849490 0.000000 0.000000 0.000000 0.000000
7957447.369468 3450201.753502 0.000000 3450201.753502 11453572.657836 0.000000 0.000000 0.000000 0.000000
2435524.767693 1073465.839140 0.000000 1073465.839140 2850148.379212 0.000000 0.000000 0.000000 0.000000
4024972.205167 -184249.976383 0.000000 -184249.976383 6096181.059138 0.000000 0.000000 0.000000 0.000000
8644861.222661 1922466.798215 0.000000 1922466.798215 11352695.419046 0.000000 0.000000 0.000000 0.000000
4313392.729681 -284685.833549 0.000000 -284685.833549 6695506.220226 0.000000 0.000000 0.000000 0.000000
5723876.273928 -955102.030586 0.000000 -955102.030586 10342541.820686 0.000000 0.000000 0.000000 0.000000
3198148.230643 -197339.782672 0.000000 -197339.782672 5267758.849021 0.000000 0.000000 0.000000 0.000000
4517743.056666 -379293.053370 0.000000 -379293.053370 6976859.999124 0.000000 0.000000 0.000000 0.000000
7013864.330835 3815083.325894 0.000000 3815083.325894 8974784.673457 0.000000 0.000000 0.000000 0.000000
7569685.488312 2251879.806940 0.000000 2251879.806940 7851342.520195 0.000000 0.000000 0.000000 0.000000
6057685.002516 99425.246672 0.000000 99425.246672 11737111.323538 0.000000 0.000000 0.000000 0.000000
9362616.836964 -5071680.237906 0.000000 -5071680.237906 15466628.880147 0.000000 0.000000 0.000000 0.000000
8445010.354341 1817918.105691 0.000000 1817918.105691 11285910.979875 0.000000 0.000000 0.000000 0.000000
6020229.419333 -1353957.953412 0.000000 -1353957.953412 8216778.600067 0.000000 0.000000 0.000000 0.000000
7953754.740083 -3319170.134952 0.000000 -3319170.134952 11969310.912215 0.000000 0.000000 0.000000 0.000000
5655224.411162 -2039328.315027 0.000000 -2039328.315027 7428287.987924 0.000000 0.000000 0.000000 0.000000
7487878.205994 -4015797.571563 0.000000 -4015797.571563 12582305.869551 0.000000 0.000000 0.000000 0.000000
6677941.233760 -3122367.719819 0.000000 -3122367.719819 10167268.768394 0.000000 0.000000 0.000000 0.000000
5780153.864973 659621.196797 0.000000 659621.196797 10506961.945605 0.000000 0.000000 0.000000 0.000000
3919558.613022 -1873979.404762 0.000000 -1873979.404762 5175479.393276 0.000000 0.000000 0.000000 0.000000
6444567.609723 -3172298.983438 0.000000 -3172298.983438 7589163.313084 0.000000 0.000000 0.000000 0.000000
8258805.340599 3293734.516248 0.000000 3293734.516248 11033691.218901 0.000000 0.000000 0.000000 0.000000
5424817.429536 363064.502740 0.000000 363064.502740 9334686.781652 0.000000 0.000000 0.000000 0.000000
4140897.301970 1357696.645785 0.000000 1357696.645785 5064633.867446 0.000000 0.000000 0.000000 0.000000
6599396.602559 -2982894.723010 0.000000 -2982894.723010 9068544.356081 0.000000 0.000000 0.000000 0.000000
7356120.393627 666875.690562 0.000000 666875.690562 10287814.660058 0.000000 0.000000 0.000000 0.000000
5847615.001844 -219256.632371 0.000000 -219256.632371 10567822.236559 0.000000 0.000000 0.000000 0.000000
4435136.171182 -2149010.213425 0.000000 -2149010.213425 5734751.620494 0.000000 0.000000 0.000000 0.000000
4956427.805424 -149079.959504 0.000000 -149079.959504 8757223.768685 0.000000 0.000000 0.000000 0.000000
7198786.605819 -3126334.560231 0.000000 -3126334.560231 11345958.978677 0.000000 0.000000 0.000000 0.000000
5167213.603085 -194401.846087 0.000000 -194401.846087 9160556.195806 0.000000 0.000000 0.000000 0.000000
5628633.165055 1197133.551674 0.000000 1197133.551674 9142734.612055 0.000000 0.000000 0.000000 0.000000
6422515.397613 -3498197.944402 0.000000 -3498197.944402 10377655.490882 0.000000 0.000000 0.000000 0.000000
4654343.720640 -2575047.396293 0.000000 -2575047.396293 7481093.260722 0.000000 0.000000 0.000000 0.000000
4989875.373972 -556779.639959 0.000000 -556779.639959 8096882.114635 0.000000 0.000000 0.000000 0.000000
3048896.690055 1611541.467560 0.000000 1611541.467560 4320276.356941 0.000000 0.000000 0.000000 0.000000
8526895.428815 -4205708.126232 0.000000 -4205708.126232 13474703.065766 0.000000 0.000000 0.000000 0.000000
6029038.512738 80901.454319 0.000000 80901.454319 10943376.055984 0.000000 0.000000 0.000000 0.000000
4634618.267827 -730694.639234 0.000000 -730694.639234 4735666.817755 0.000000 0.000000 0.000000 0.000000
8188631.006252 6018837.357183 0.000000 6018837.357183 11323281.171668 0.000000 0.000000 0.000000 0.000000
5825646.616432 -647542.120843 0.000000 -647542.120843 7855943.278925 0.000000 0.000000 0.000000 0.000000
2818526.224328 -280231.967707 0.000000 -280231.967707 4410789.178073 0.000000 0.000000 0.000000 0.000000
5138748.485471 -731115.260818 0.000000 -731115.260818 8875829.612882 0.000000 0.000000 0.000000 0.000000
5292330.854125 2259560.222960 0.000000 2259560.222960 7932533.816619 0.000000 0.000000 0.000000 0.000000
4811119.900980 162144.996493 0.000000 162144.996493 7822223.705189 0.000000 0.000000 0.000000 0.000000
3398730.802331 1561373.652536 0.000000 1561373.652536 5093304.051021 0.000000 0.000000 0.000000 0.000000
7049139.164237 -3613577.249561 0.000000 -3613577.249561 11852853.037667 0.000000 0.000000 0.000000 0.000000
4595569.815342 2386158.914421 0.000000 2386158.914421 8122972.119792 0.000000 0.000000 0.000000 0.000000
6722440.497953 2857489.395580 0.000000 2857489.395580 10048862.327377 0.000000 0.000000 0.000000 0.000000
2810447.371309 -1434452.904546 0.000000 -1434452.904546 2770268.493625 0.000000 0.000000 0.000000 0.000000
4080782.618741 2063820.888519 0.000000 2063820.888519 6463451.490475 0.000000 0.000000 0.000000 0.000000
7138088.627499 -3860743.197942 0.000000 -3860743.197942 11286342.845037 0.000000 0.000000 0.000000 0.000000
8619125.173027 2602457.309517 0.000000 2602457.309517 11987743.112604 0.000000 0.000000 0.000000 0.000000
2759824.204474 1528027.538976 0.000000 1528027.538976 4061032.140740 0.000000 0.000000 0.000000 0.000000
4333141.694985 -204690.202382 0.000000 -204690.202382 5777680.549694 0.000000 0.000000 0.000000 0.000000
4542445.341388 -262198.492781 0.000000 -262198.492781 7647621.945114 0.000000 0.000000 0.000000 0.000000
5887634.232600 -1337025.990684 0.000000 -1337025.990684 7659938.690443 0.000000 0.000000 0.000000 0.000000
5780724.783635 2512085.342454 0.000000 2512085.342454 8476392.356092 0.000000 0.000000 0.000000 0.000000
6749571.694108 2242695.894625 0.000000 2242695.894625 8088383.823817 0.000000 0.000000 0.000000 0.000000
6432690.028533 1065635.753132 0.000000 1065635.753132 10142878.734549 0.000000 0.000000 0.000000 0.000000
7029032.762707 -3071981.658691 0.000000 -3071981.658691 11072139.558909 0.000000 0.000000 0.000000 0.000000
5423828.652076 -817499.575620 0.000000 -817499.575620 9423552.584060 0.000000 0.000000 0.000000 0.000000
4786140.634933 -366634.678535 0.000000 -366634.678535 7821415.422724 0.000000 0.000000 0.000000 0.000000
5422864.008720 -718953.426363 0.000000 -718953.426363 9011536.236116 0.000000 0.000000 0.000000 0.000000
4201367.357583 1458294.279688 0.000000 1458294.279688 5370214.211177 0.000000 0.000000 0.000000 0.000000
5188538.756086 2826825.085258 0.000000 2826825.085258 7993900.858352 0.000000 0.000000 0.000000 0.000000
3528736.548306 -1689866.874649 0.000000 -1689866.874649 4825317.745289 0.000000 0.000000 0.000000 0.000000
4027279.109815 1418419.454203 0.000000 1418419.454203 5505872.807673 0.000000 0.000000 0.000000 0.000000
5277019.701482 1963143.035644 0.000000 1963143.035644 5902623.411482 0.000000 0.000000 0.000000 0.000000
4298572.573097 2170956.298222 0.000000 2170956.298222 6483185.613591 0.000000 0.000000 0.000000 0.000000
5225914.186817 -2465524.899096 0.000000 -2465524.899096 6664910.684339 0.000000 0.000000 0.000000 0.000000
4637378.636319 1917351.941888 0.000000 1917351.941888 5490820.205241 0.000000 0.000000 0.000000 0.000000
1958795.356539 18361.720086 0.000000 18361.720086 3236356.244126 0.000000 0.000000 0.000000 0.000000
3849446.867935 1646506.295761 0.000000 1646506.295761 4764195.176622 0.000000 0.000000 0.000000 0.000000
3194971.689277 1246629.503450 0.000000 1246629.503450 3536318.901446 0.000000 0.000000 0.000000 0.000000
4307815.903523 1764603.366521 0.000000 1764603.366521 5219176.279932 0.000000 0.000000 0.000000 0.000000
3459256.161755 1057789.156721 0.000000 1057789.156721 4470132.157875 0.000000 0.000000 0.000000 0.000000
4518933.159699 1594856.875160 0.000000 1594856.875160 5575628.234431 0.000000 0.000000 0.000000 0.000000
4136304.154201 -823139.010720 0.000000 -823139.010720 3297968.313235 0.000000 0.000000 0.000000 0.000000
6117095.901037 -3213461.026361 0.000000 -3213461.026361 9938510.964195 0.000000 0.000000 0.000000 0.000000
4271492.878333 -1307395.880450 0.000000 -1307395.880450 4449099.167455 0.000000 0.000000 0.000000 0.000000
1981372.139218 -79942.998882 0.000000 -79942.998882 3587195.397996 0.000000 0.000000 0.000000 0.000000
3297343.352291 1101770.978698 0.000000 1101770.978698 3833997.310172 0.000000 0.000000 0.000000 0.000000
4689124.943696 -2076767.255764 0.000000 -2076767.255764 6804998.455366 0.000000 0.000000 0.000000 0.000000
3867987.434608 -1088297.615205 0.000000 -1088297.615205 3321578.971036 0.000000 0.000000 0.000000 0.000000
3623306.235849 -1818993.625821 0.000000 -1818993.625821 5611602.245289 0.000000 0.000000 0.000000 0.000000
2296319.164412 911389.709609 0.000000 911389.709609 3600709.900195 0.000000 0.000000 0.000000 0.000000
2121335.006500 -295050.355994 0.000000 -295050.355994 3444326.270078 0.000000 0.000000 0.000000 0.000000
3217920.464377 894628.771158 0.000000 894628.771158 3989860.111386 0.000000 0.000000 0.000000 0.000000
3344704.158049 1450076.807719 0.000000 1450076.807719 3834034.357503 0.000000 0.000000 0.000000 0.000000
3763174.276385 -1472860.714651 0.000000 -1472860.714651 4237675.748264 0.000000 0.000000 0.000000 0.000000
2978982.091061 1176732.472321 0.000000 1176732.472321 4283683.005676 0.000000 0.000000 0.000000 0.000000
3897686.088993 911659.971944 0.000000 911659.971944 5826579.373529 0.000000 0.000000 0.000000 0.000000
2887208.756169 -1154280.356517 0.000000 -1154280.356517 3497215.573584 0.000000 0.000000 0.000000 0.000000
2240955.254856 -55887.959394 0.000000 -55887.959394 2930743.868947 0.000000 0.000000 0.000000 0.000000
2986147.336543 1298129.960547 0.000000 1298129.960547 4234817.270553 0.000000 0.000000 0.000000 0.000000
4255492.136724 -2041177.787534 0.000000 -2041177.787534 5557440.950224 0.000000 0.000000 0.000000 0.000000
3461569.603475 1553684.803280 0.000000 1553684.803280 4078561.017517 0.000000 0.000000 0.000000 0.000000
5243677.246225 -2499046.500346 0.000000 -2499046.500346 6858661.339708 0.000000 0.000000 0.000000 0.000000
4298473.496548 1567075.755391 0.000000 1567075.755391 4944274.352384 0.000000 0.000000 0.000000 0.000000
3784930.263920 -323786.450002 0.000000 -323786.450002 3699482.813159 0.000000 0.000000 0.000000 0.000000
4237713.454105 -2277855.206926 0.000000 -2277855.206926 6737477.054525 0.000000 0.000000 0.000000 0.000000
2991216.923285 827938.094471 0.000000 827938.094471 4792631.780383 0.000000 0.000000 0.000000 0.000000
4023481.523748 -1058893.855444 0.000000 -1058893.855444 3620518.376810 0.000000 0.000000 0.000000 0.000000
4266986.469234 1862221.280791 0.000000 1862221.280791 5387941.276388 0.000000 0.000000 0.000000 0.000000
4463838.213271 2334614.808220 0.000000 2334614.808220 7002963.349516 0.000000 0.000000 0.000000 0.000000
2561177.036077 274059.154084 0.000000 274059.154084 3427977.412759 0.000000 0.000000 0.000000 0.000000
2317481.709419 424716.919785 0.000000 424716.919785 3291083.552036 0.000000 0.000000 0.000000 0.000000
3678658.820726 -2272223.803745 0.000000 -2272223.803745 5998094.322461 0.000000 0.000000 0.000000 0.000000
4320469.932576 -468046.652266 0.000000 -468046.652266 4667061.252179 0.000000 0.000000 0.000000 0.000000
2623231.879185 769118.304803 0.000000 769118.304803 4593617.627410 0.000000 0.000000 0.000000 0.000000
8058901.829990 2210539.951166 0.000000 2210539.951166 8423122.614311 0.000000 0.000000 0.000000 0.000000
5328654.879483 2980033.220430 0.000000 2980033.220430 8829311.731750 0.000000 0.000000 0.000000 0.000000
4187582.323727 -767530.385085 0.000000 -767530.385085 3797679.302023 0.000000 0.000000 0.000000 0.000000
3783175.085935 921252.005999 0.000000 921252.005999 5165058.169936 0.000000 0.000000 0.000000 0.000000
2502827.430117 662923.379687 0.000000 662923.379687 3916485.970061 0.000000 0.000000 0.000000 0.000000
4069366.231369 -1538715.339518 0.000000 -1538715.339518 5076626.178298 0.000000 0.000000 0.000000 0.000000
5499501.478312 -2578105.213067 0.000000 -2578105.213067 8299143.861826 0.000000 0.000000 0.000000 0.000000
2305647.260080 182555.926782 0.000000 182555.926782 2988949.254393 0.000000 0.000000 0.000000 0.000000
3077306.074362 1191323.699886 0.000000 1191323.699886 4482093.208048 0.000000 0.000000 0.000000 0.000000
3455323.023208 1082296.129196 0.000000 1082296.129196 4362516.802153 0.000000 0.000000 0.000000 0.000000
4016877.868702 1527234.193470 0.000000 1527234.193470 5446525.394498 0.000000 0.000000 0.000000 0.000000
4324568.601238 -2212823.658869 0.000000 -2212823.658869 6757784.218547 0.000000 0.000000 0.000000 0.000000
2754434.066981 762489.589685 0.000000 762489.589685 4071686.178268 0.000000 0.000000 0.000000 0.000000
3758802.229158 1864180.123913 0.000000 1864180.123913 5457448.133589 0.000000 0.000000 0.000000 0.000000
4959936.268969 -2567932.649972 0.000000 -2567932.649972 6983276.662223 0.000000 0.000000 0.000000 0.000000
3500496.965736 -2019765.498863 0.000000 -2019765.498863 5648152.415474 0.000000 0.000000 0.000000 0.000000
2488139.237679 816140.434563 0.000000 816140.434563 4643791.461904 0.000000 0.000000 0.000000 0.000000
3171692.839802 958709.341562 0.000000 958709.341562 5684650.440502 0.000000 0.000000 0.000000 0.000000
2350509.156484 663479.839167 0.000000 663479.839167 3890875.425662 0.000000 0.000000 0.000000 0.000000
4057050.325191 -1955022.888544 0.000000 -1955022.888544 5304075.909205 0.000000 0.000000 0.000000 0.000000
3008442.027402 787803.705602 0.000000 787803.705602 4822586.288231 0.000000 0.000000 0.000000 0.000000
5293744.258937 -2903474.952340 0.000000 -2903474.952340 8260214.728204 0.000000 0.000000 0.000000 0.000000
2543296.535555 862268.743098 0.000000 862268.743098 3785488.805754 0.000000 0.000000 0.000000 0.000000
4310198.564328 -1971155.792451 0.000000 -1971155.792451 5327949.373232 0.000000 0.000000 0.000000 0.000000
4088973.308786 -1657318.842569 0.000000 -1657318.842569 4711089.668772 0.000000 0.000000 0.000000 0.000000
4940985.716251 -2439172.837221 0.000000 -2439172.837221 6598071.451081 0.000000 0.000000 0.000000 0.000000
2209353.285716 -13995.639628 0.000000 -13995.639628 3611564.433164 0.000000 0.000000 0.000000 0.000000
4158598.137732 1122201.357592 0.000000 1122201.357592 7293589.842444 0.000000 0.000000 0.000000 0.000000
2202956.303433 767721.873106 0.000000 767721.873106 4286534.399220 0.000000 0.000000 0.000000 0.000000
2756821.932524 -1224772.996206 0.000000 -1224772.996206 3789154.317049 0.000000 0.000000 0.000000 0.000000
5176289.337277 -2713765.698812 0.000000 -2713765.698812 8119975.673198 0.000000 0.000000 0.000000 0.000000
4729655.101391 -2735383.236950 0.000000 -2735383.236950 7521067.463573 0.000000 0.000000 0.000000 0.000000
3976771.441402 -1714298.727398 0.000000 -1714298.727398 4889421.192419 0.000000 0.000000 0.000000 0.000000
2430135.130652 -193440.431036 0.000000 -193440.431036 4177686.934595 0.000000 0.000000 0.000000 0.000000
5816791.946087 -2744704.781616 0.000000 -2744704.781616 8182915.029927 0.000000 0.000000 0.000000 0.000000
3045254.615083 -1293793.834682 0.000000 -1293793.834682 3796459.745230 0.000000 0.000000 0.000000 0.000000
5166689.298503 -2494890.932312 0.000000 -2494890.932312 6312990.625770 0.000000 0.000000 0.000000 0.000000
3331298.348848 -1245035.004537 0.000000 -1245035.004537 4041204.434435 0.000000 0.000000 0.000000 0.000000
3135625.322654 -1034121.327421 0.000000 -1034121.327421 3375323.130555 0.000000 0.000000 0.000000 0.000000
3188558.343599 -1938682.488577 0.000000 -1938682.488577 5237491.121892 0.000000 0.000000 0.000000 0.000000
3758556.330015 -1478135.125015 0.000000 -1478135.125015 4320235.442410 0.000000 0.000000 0.000000 0.000000
3143857.871363 993405.953826 0.000000 993405.953826 5853682.540165 0.000000 0.000000 0.000000 0.000000
4145018.864810 1650901.924589 0.000000 1650901.924589 6038624.167533 0.000000 0.000000 0.000000 0.000000
3725434.679763 -1706942.723181 0.000000 -1706942.723181 5521761.528503 0.000000 0.000000 0.000000 0.000000
3144251.939300 1520433.228572 0.000000 1520433.228572 4114475.703720 0.000000 0.000000 0.000000 0.000000
4671983.033764 999064.633601 0.000000 999064.633601 6633978.354080 0.000000 0.000000 0.000000 0.000000
4132433.539413 1704427.346676 0.000000 1704427.346676 4915593.844884 0.000000 0.000000 0.000000 0.000000
4515083.830156 1839434.775235 0.000000 1839434.775235 5329166.099066 0.000000 0.000000 0.000000 0.000000
5640638.153860 -2628301.810836 0.000000 -2628301.810836 6466136.209798 0.000000 0.000000 0.000000 0.000000
2104673.938570 569273.762913 0.000000 569273.762913 3409482.027682 0.000000 0.000000 0.000000 0.000000
2971349.682862 -1342862.652829 0.000000 -1342862.652829 4276400.608935 0.000000 0.000000 0.000000 0.000000
3934788.072845 1887175.784553 0.000000 1887175.784553 5712521.729642 0.000000 0.000000 0.000000 0.000000
4625757.430944 1764049.582238 0.000000 1764049.582238 6317454.163748 0.000000 0.000000 0.000000 0.000000
3337446.840743 1506479.893094 0.000000 1506479.893094 3874539.667644 0.000000 0.000000 0.000000 0.000000
2501911.617283 120904.394062 0.000000 120904.394062 3321633.488104 0.000000 0.000000 0.000000 0.000000
2219846.302168 59667.088786 0.000000 59667.088786 2875523.759907 0.000000 0.000000 0.000000 0.000000
4964934.004879 -2734473.417082 0.000000 -2734473.417082 7543038.232026 0.000000 0.000000 0.000000 0.000000
2223071.805299 -255905.139896 0.000000 -255905.139896 3729553.134777 0.000000 0.000000 0.000000 0.000000
3499936.293631 885586.885294 0.000000 885586.885294 5327643.108603 0.000000 0.000000 0.000000 0.000000
4061882.435765 1456435.644558 0.000000 1456435.644558 4998199.313261 0.000000 0.000000 0.000000 0.000000
2474009.664692 -278609.274989 0.000000 -278609.274989 4053632.376723 0.000000 0.000000 0.000000 0.000000
3902801.419208 1655878.315250 0.000000 1655878.315250 4774051.200337 0.000000 0.000000 0.000000 0.000000
7031438.229571 -3407821.350385 0.000000 -3407821.350385 7847407.518607 0.000000 0.000000 0.000000 0.000000
4777722.670346 986043.520438 0.000000 986043.520438 7473924.924826 0.000000 0.000000 0.000000 0.000000
6077153.368018 1081124.822877 0.000000 1081124.822877 8193237.046885 0.000000 0.000000 0.000000 0.000000
5366263.466298 -2613466.746196 0.000000 -2613466.746196 7393927.405650 0.000000 0.000000 0.000000 0.000000
3442946.105158 1266121.224001 0.000000 1266121.224001 4883284.159699 0.000000 0.000000 0.000000 0.000000
3961669.774871 1594849.698008 0.000000 1594849.698008 4604701.472700 0.000000 0.000000 0.000000 0.000000
3991225.658170 -542817.501371 0.000000 -542817.501371 3675399.448563 0.000000 0.000000 0.000000 0.000000
4231619.596666 1522840.362389 0.000000 1522840.362389 5089992.621782 0.000000 0.000000 0.000000 0.000000
4788759.409925 1482398.867867 0.000000 1482398.867867 6006907.728951 0.000000 0.000000 0.000000 0.000000
3794755.366248 1114548.977121 0.000000 1114548.977121 6942632.777189 0.000000 0.000000 0.000000 0.000000
3813470.466507 1372310.090548 0.000000 1372310.090548 4783691.563489 0.000000 0.000000 0.000000 0.000000
6741570.964221 -3528084.734730 0.000000 -3528084.734730 10576649.838727 0.000000 0.000000 0.000000 0.000000
4528196.218216 -1590978.812798 0.000000 -1590978.812798 5364293.716434 0.000000 0.000000 0.000000 0.000000
2884830.039657 1611129.779138 0.000000 1611129.779138 4156845.007749 0.000000 0.000000 0.000000 0.000000
4102588.526735 -1764449.467582 0.000000 -1764449.467582 4936292.837937 0.000000 0.000000 0.000000 0.000000
7160839.695622 -3567665.304184 0.000000 -3567665.304184 11994420.221306 0.000000 0.000000 0.000000 0.000000
3850483.129987 899250.867338 0.000000 899250.867338 5615787.318193 0.000000 0.000000 0.000000 0.000000
2683634.695331 -274646.749358 0.000000 -274646.749358 4061483.282224 0.000000 0.000000 0.000000 0.000000
4030812.370993 713056.441671 0.000000 713056.441671 5973207.158759 0.000000 0.000000 0.000000 0.000000
2628761.727471 1493587.918715 0.000000 1493587.918715 3940786.508910 0.000000 0.000000 0.000000 0.000000
3692200.373770 -1651904.615862 0.000000 -1651904.615862 5328006.821789 0.000000 0.000000 0.000000 0.000000
3212294.352379 1512424.673639 0.000000 1512424.673639 4390328.447859 0.000000 0.000000 0.000000 0.000000
2720230.876492 -188103.235108 0.000000 -188103.235108 3882875.937278 0.000000 0.000000 0.000000 0.000000
2528614.719505 634283.665482 0.000000 634283.665482 3940443.391858 0.000000 0.000000 0.000000 0.000000
3060099.653715 1580770.035163 0.000000 1580770.035163 4141844.316313 0.000000 0.000000 0.000000 0.000000
6950420.179642 2833396.454907 0.000000 2833396.454907 10324748.160096 0.000000 0.000000 0.000000 0.000000
3539239.852225 943080.398568 0.000000 943080.398568 5874803.670632 0.000000 0.000000 0.000000 0.000000
4222904.513702 -1786182.852534 0.000000 -1786182.852534 5104355.910436 0.000000 0.000000 0.000000 0.000000
3506036.672473 469887.146780 0.000000 469887.146780 5008823.805403 0.000000 0.000000 0.000000 0.000000
4573714.888652 1798294.415833 0.000000 1798294.415833 6527206.064410 0.000000 0.000000 0.000000 0.000000
5211458.984908 -2469587.605935 0.000000 -2469587.605935 6700523.037727 0.000000 0.000000 0.000000 0.000000
3541780.176428 1317555.057543 0.000000 1317555.057543 4242004.808308 0.000000 0.000000 0.000000 0.000000
3800480.700380 -1463662.447085 0.000000 -1463662.447085 4854229.205206 0.000000 0.000000 0.000000 0.000000
2781063.353208 -1249542.412763 0.000000 -1249542.412763 3926532.017778 0.000000 0.000000 0.000000 0.000000
3435146.326810 -134721.118068 0.000000 -134721.118068 5421929.650943 0.000000 0.000000 0.000000 0.000000
3765751.396120 193525.000845 0.000000 193525.000845 5538022.559771 0.000000 0.000000 0.000000 0.000000
4687914.773358 1153946.719694 0.000000 1153946.719694 6086575.249645 0.000000 0.000000 0.000000 0.000000
3602088.456916 1723055.713757 0.000000 1723055.713757 5444113.485964 0.000000 0.000000 0.000000 0.000000
3515431.010445 -1469576.829059 0.000000 -1469576.829059 3884203.901720 0.000000 0.000000 0.000000 0.000000
5231956.620026 1934831.108972 0.000000 1934831.108972 6677900.363044 0.000000 0.000000 0.000000 0.000000
5799118.259077 1860318.931271 0.000000 1860318.931271 6550045.845232 0.000000 0.000000 0.000000 0.000000
4771791.774741 -1917731.576788 0.000000 -1917731.576788 6169873.901890 0.000000 0.000000 0.000000 0.000000
2342364.675426 785110.858279 0.000000 785110.858279 4462449.055107 0.000000 0.000000 0.000000 0.000000
4737311.628425 -501667.895076 0.000000 -501667.895076 5876359.233942 0.000000 0.000000 0.000000 0.000000
3673100.727676 -1093521.531739 0.000000 -1093521.531739 3497090.055232 0.000000 0.000000 0.000000 0.000000
5002954.639743 -934901.905026 0.000000 -934901.905026 5819186.849797 0.000000 0.000000 0.000000 0.000000
5181461.828591 1910203.432563 0.000000 1910203.432563 7060674.727751 0.000000 0.000000 0.000000 0.000000
3962196.708973 -1370227.145663 0.000000 -1370227.145663 4521317.330220 0.000000 0.000000 0.000000 0.000000
2892619.368601 -1193400.921670 0.000000 -1193400.921670 3532594.820720 0.000000 0.000000 0.000000 0.000000
5735266.795259 -2055991.689502 0.000000 -2055991.689502 8149590.576002 0.000000 0.000000 0.000000 0.000000
8398386.653853 -4467052.084130 0.000000 -4467052.084130 14118791.256210 0.000000 0.000000 0.000000 0.000000
2223166.247308 545161.693950 0.000000 545161.693950 3470635.591944 0.000000 0.000000 0.000000 0.000000
4051345.505355 -937263.787416 0.000000 -937263.787416 3480532.041125 0.000000 0.000000 0.000000 0.000000
2936820.659194 929593.792542 0.000000 929593.792542 5428841.512649 0.000000 0.000000 0.000000 0.000000
3081520.388176 -112167.616729 0.000000 -112167.616729 3669589.176336 0.000000 0.000000 0.000000 0.000000
2588824.824134 -49122.940542 0.000000 -49122.940542 3439384.800564 0.000000 0.000000 0.000000 0.000000
4700159.965779 1771612.320134 0.000000 1771612.320134 5368554.925852 0.000000 0.000000 0.000000 0.000000
4447353.055818 1761426.571221 0.000000 1761426.571221 6424378.257546 0.000000 0.000000 0.000000 0.000000
2807219.311060 -56376.150004 0.000000 -56376.150004 4472153.403727 0.000000 0.000000 0.000000 0.000000
4300005.880246 -1884907.599815 0.000000 -1884907.599815 5771130.107974 0.000000 0.000000 0.000000 0.000000
3987761.512908 -145301.807610 0.000000 -145301.807610 5575667.380873 0.000000 0.000000 0.000000 0.000000
3786508.614679 1490777.400818 0.000000 1490777.400818 5494680.441307 0.000000 0.000000 0.000000 0.000000
3109212.256097 1481270.754825 0.000000 1481270.754825 4067359.345824 0.000000 0.000000 0.000000 0.000000
3407735.316091 -2064230.361991 0.000000 -2064230.361991 5563256.564505 0.000000 0.000000 0.000000 0.000000
4548038.893354 -2133910.073107 0.000000 -2133910.073107 6831014.617672 0.000000 0.000000 0.000000 0.000000
3827288.053213 -1217281.744634 0.000000 -1217281.744634 3986763.652036 0.000000 0.000000 0.000000 0.000000
5043175.911308 -2127813.256114 0.000000 -2127813.256114 6675620.231493 0.000000 0.000000 0.000000 0.000000
3028957.440081 -1163708.810568 0.000000 -1163708.810568 3666764.336695 0.000000 0.000000 0.000000 0.000000
3353162.188095 -96539.289384 0.000000 -96539.289384 4289799.180333 0.000000 0.000000 0.000000 0.000000
3184218.291304 -1225803.960334 0.000000 -1225803.960334 3898245.246538 0.000000 0.000000 0.000000 0.000000
3319925.791864 -214998.147428 0.000000 -214998.147428 3506394.306643 0.000000 0.000000 0.000000 0.000000
4973609.322938 -588009.287330 0.000000 -588009.287330 6223825.946327 0.000000 0.000000 0.000000 0.000000
3442706.229695 -1187992.939306 0.000000 -1187992.939306 3880786.472711 0.000000 0.000000 0.000000 0.000000
5483589.542688 1496095.650037 0.000000 1496095.650037 7012685.157796 0.000000 0.000000 0.000000 0.000000
5391473.237429 1784560.027718 0.000000 1784560.027718 6280293.118271 0.000000 0.000000 0.000000 0.000000
5009950.140196 1276923.986633 0.000000 1276923.986633 9944810.837620 0.000000 0.000000 0.000000 0.000000
3163839.136037 848803.362515 0.000000 848803.362515 4913546.437702 0.000000 0.000000 0.000000 0.000000
6317312.744492 -2778934.339381 0.000000 -2778934.339381 6773839.225888 0.000000 0.000000 0.000000 0.000000
3788303.024458 -1770725.584244 0.000000 -1770725.584244 4963788.252255 0.000000 0.000000 0.000000 0.000000
4935065.400320 2242495.426915 0.000000 2242495.426915 5934155.277532 0.000000 0.000000 0.000000 0.000000
2418369.537853 748235.846258 0.000000 748235.846258 4398548.598140 0.000000 0.000000 0.000000 0.000000
3359484.872772 1144701.412780 0.000000 1144701.412780 4488237.948027 0.000000 0.000000 0.000000 0.000000
4276904.098704 1570311.730102 0.000000 1570311.730102 5492127.074532 0.000000 0.000000 0.000000 0.000000
4092244.690649 -283242.573152 0.000000 -283242.573152 4829640.402917 0.000000 0.000000 0.000000 0.000000
6132167.529331 2093894.253255 0.000000 2093894.253255 8354662.183159 0.000000 0.000000 0.000000 0.000000
5804014.817869 1847649.942200 0.000000 1847649.942200 6378193.131376 0.000000 0.000000 0.000000 0.000000
4057464.681393 933041.990295 0.000000 933041.990295 5796445.644775 0.000000 0.000000 0.000000 0.000000
5968614.371506 -1864601.082294 0.000000 -1864601.082294 8406556.400153 0.000000 0.000000 0.000000 0.000000
3311602.451740 1004683.336316 0.000000 1004683.336316 4286391.935643 0.000000 0.000000 0.000000 0.000000
3726615.201474 1086652.326077 0.000000 1086652.326077 4873466.440842 0.000000 0.000000 0.000000 0.000000
3495907.331487 1272005.653108 0.000000 1272005.653108 4690106.764046 0.000000 0.000000 0.000000 0.000000

SCALARS id int
LOOKUP_TABLE default
1	31	61	91	121	151	181	211	241	271	301	331	361	391	421	451	481	511	541	571	601	631	661	691	721	751	781	811	841	871	901	931	961	991	1021	1051	1081	1111	1141	1171	1201	1231	1261	1291	1321	1351	1381	1411	1441	1471	1501	1531	1561	1591	1621	1651	1681	1711	1741	1771	1801	1831	1861	1891	1921	1951	1981	2011	2041	2071	2101	2131	2161	2191	2221	2251	2281	2311	2341	2371	2401	2431	2461	2491	2521	2551	2581	2611	2641	2671	2701	2731	2761	2791	2821	2851	2881	2911	2941	2971	3001	3031	3061	3091	3121	3151	3181	3211	3241	3271	3301	3331	3361	3391	3421	3451	3481	3511	3541	3571	3601	3631	3661	3691	3721	3751	3781	3811	3841	3871	3901	3931	3961	3991	4021	4051	4081	4111	4141	4171	4201	4231	4261	4291	4321	4351	4381	4411	4441	4471	4501	4531	4561	4591	4621	4651	4681	4711	4741	4771	4801	4831	4861	4891	4921	4951	4981	5011	5041	5071	5101	5131	5161	5191	5221	5251	5281	5311	5341	5371	5401	5431	5461	5491	5521	5551	5581	5611	5641	5671	5701	5731	5761	5791	5821	5851	5881	5911	5941	5971	6001	6031	6061	6091	6121	6151	6181	6211	6241	6271	6301	6331	6361	6391	6421	6451	6481	6511	6541	6571	6601	6631	6661	6691	6721	6751	6781	6811	6841	6871	6901	6931	6961	6991	7021	7051	7081	7111	7141	7171	7201	7231	7261	7291	7321	7351	7381	7411	7441	7471	7501	7531	7561	7591	7621	7651	7681	7711	7741	7771	7801	7831	7861	7891	7921	7951	7981	8011	8041	8071	8101	8131	8161	8191	8221	8251	8281	8311	8341	8371	8401	8431	8461	8491	8521	8551	8581	8611	8641	8671	8701	8731	8761	8791	8821	8851	8881	8911	8941	8971	9001	9031	9061	9091	9121	9151	9181	9211	9241	9271	9301	9331	9361	9391	9421	9451	9481	9511	9541	9571	9601	9631	9661	9691	9721	9751	9781	9811	9841	9871	9901	9931	9961	9991	10021	10051	10081	10111	10141	10171	10201	10231	10261	10291	10321	10351	10381	10411	10441	10471	10501	10531	10561	10591	10621	10651	10681	10711	10741	10771	10801	10831	10861	10891	10921	10951	10981	11011	11041	11071	11101	11131	11161	11191	11221	11251	11281	11311	11341	11371	11401	11431	11461	11491	11521	11551	11581	11611	11641	11671	11701	11731	11761	11791	11821	11851	11881	11911	11941	11971	12001	12031	12061	12091	12121	12151	12181	12211	12241	12271	12301	12331	12361	12391	12421	12451	12481	12511	12541	12571	12601	12631	12661	12691	12721	12751	12781	12811	12841	12871	12901	12931	12961	12991	13021	13051	13081	13111	13141	13171	13201	13231	13261	13291	13321	13351	13381	13411	13441	13471	13501	13531	13561	13591	13621	13651	13681	13711	13741	13771	13801	13831	13861	13891	13921	13951	13981	14011	14041	14071	14101	14131	14161	14191	14221	14251	14281	14311	14341	14371	14401	14431	14461	14491	14521	14551	14581	14611	14641	14671	14701	14731	14761	14791	14821	14851	14881	14911	14941	14971	15001	15031	15061	15091	15121	15151	15181	15211	15241	15271	15301	15331	15361	15391	15421	15451	15481	15511	15541	15571	15601	15631	15661	15691	15721	15751	15781	15811	15841	15871	15901	15931	15961	15991	16021	16051	16081	16111	16141	16171	16201	16231	16261	16291	16321	16351	16381	16411	16441	16471	16501	16531	16561	16591	16621	16651	16681	16711	16741	16771	16801	16831	16861	16891	16921	16951	16981	17011	17041	17071	17101	17131	17161	17191	17221	17251	17281	17311	17341	17371	17401	17431	17461	17491	17521	17551	17581	17611	17641	17671	17701	17731	17761	17791	17821	17851	17881	17911	17941	17971	18001	18031	18061	18091	18121	18151	18181	18211	18241	18271	18301	18331	18361	18391	18421	18451	18481	18511	18541	18571	18601	18631	18661	18691	18721	18751	18781	18811	18841	18871	18901	18931	18961	18991	19021	19051	19081	19111	19141	19171	19201	19231	19261	19291	19321	19351	19381	19411	19441	19471	19501	19531	19561	19591	19621	19651	19681	19711	19741	19771	19801	19831	19861	19891	19921	19951	19981	20011	20041	20071	20101	20131	20161	20191	20221	20251	20281	20311	20341	20371	20401	20431	20461	20491	20521	20551	20581	20611	20641	20671	20701	20731	20761	20791	20821	20851	20881	20911	20941	20971	21001	21031	21061	21091	21121	21151	21181	21211	21241	21271	21301	21331	21361	21391	21421	21451	21481	21511	21541	21571	21601	21631	21661	21691	21721	21751	21781	21811	21841	21871	21901	21931	21961	21991	22021	22051	22081	22111	22141	22171	22201	22231	22261	22291	22321	22351	22381	22411	22441	22471	22501	22531	22561	22591	22621	22651	22681	22711	22741	22771	22801	22831	22861	22891	22921	22951	22981	23011	23041	23071	23101	23131	23161	23191	23221	23251	23281	23311	23341	23371	23401	23431	23461	23491	23521	23551	23581	23611	23641	23671	23701	23731	23761	23791	23821	23851	23881	23911	23941	23971	24001	24031	24061	24091	24121	24151	24181	24211	24241	24271	24301	24331	24361	24391	24421	24451	24481	24511	24541	24571	24601	24631	24661	24691	24721	24751	24781	24811	24841	24871	24901	24931	24961	24991	25021	25051	25081	25111	25141	25171	25201	25231	25261	25291	25321	25351	25381	25411	25441	25471	25501	25531	25561	25591	25621	25651	25681	25711	25741	25771	25801	25831	25861	25891	25921	25951	25981	26011	26041	26071	26101	26131	26161	26191	26221	26251	26281	26311	26341	26371	26401	26431	26461	26491	26521	26551	26581	26611	26641	26671	26701	26731	26761	26791	26821	26851	26881	26911	26941	26971	27001	27031	27061	27091	27121	27151	27181	27211	27241	27271	27301	27331	27361	27391	27421	27451	27481	27511	27541	27571	27601	27631	27661	27691	27721	27751	27781	27811	27841	27871	27901	27931	27961	27991	28021	28051	28081	28111	28141	28171	28201	28231	28261	28291	28321	28351	28381	28411	28441	28471	28501	28531	28561	28591	28621	28651	28681	28711	28741	28771	28801	28831	28861	28891	28921	28951	28981	29011	29041	29071	29101	29131	29161	29191	29221	29251	29281	29311	29341	29371	29401	29431	29461	29491	29521	29551	29581	29611	29641	29671	29701	29731	29761	29791	29821	29851	29881	29911	29941	29971	30001	30031	30061	30091	30121	30151	30181	30211	30241	30271	30301	30331	30361	30391	30421	30451	30481	30511	30541	30571	30601	30631	
CELL_DATA 1632
VECTORS normal_force float
26175089243.852074 64080208356.998802 -0.000000	2332835289.090891 3168927975.510365 -0.000000	929858289.543597 1261290038.558561 -0.000000	-917883136.904191 1239053891.881593 -0.000000	28183058046.788948 37887249030.924973 -0.000000	-929858289.543591 1261290038.558566 -0.000000	32977270084.670593 74486450162.178421 -0.000000	-10813644659.288464 14050551205.651754 -0.000000	-6148738707.904177 12688696241.218830 -0.000000	-6979695607.221073 88414930578.667191 -0.000000	14414852513.106689 47239645712.318611 -0.000000	2581884806.439563 3489720883.720722 -0.000000	33369090530.514244 72576292252.817276 -0.000000	-2431572251.587508 3284969617.106018 -0.000000	58485762520.358643 78609770273.244110 -0.000000	69183836539.278000 89850747140.502182 -0.000000	-16879288827.975315 21239738902.862904 -0.000000	-45089341112.594170 56722155442.402969 -0.000000	-6203809892.947569 21534178480.085228 -0.000000	122199282324.720520 167081822468.284241 -0.000000	-16040763242.648790 19057859654.045296 -0.000000	-23249939287.769592 33758264515.745296 -0.000000	81748138571.453156 111056975648.099167 -0.000000	50306022513.798088 128718856811.429306 -0.000000	-14076899612.197657 17295401045.020882 -0.000000	-6885890780.413477 50139371836.514038 -0.000000	38003481577.574585 169594149038.175690 -0.000000	-40647161952.303268 138665274042.289459 -0.000000	121958943979.972351 304267737335.541321 -0.000000	892866022.880260 1211534260.838705 -0.000000	-2088898204.926675 3822465211.019469 -0.000000	-893005698.062291 1211431311.807764 -0.000000	38786157670.119110 50202266614.054993 -0.000000	62853912372.977486 136746611290.408478 -0.000000	-40223148985.490601 52188029141.662613 -0.000000	-40729868048.091934 84029174985.745392 -0.000000	138142196965.067108 181008351789.812714 -0.000000	-51475208988.702690 61161315057.554001 -0.000000	87416574648.401749 120538593308.286133 -0.000000	-6879134930.116172 8377535593.076022 -0.000000	68616854879.330994 176533530034.576813 -0.000000	22021768227.844547 35834136296.541275 -0.000000	30105138066.601402 78741162437.386383 -0.000000	-14638947358.534945 118499203458.225998 -0.000000	96805789220.715698 207311550988.733795 -0.000000	129022561796.880539 177205582720.664154 -0.000000	-72576570541.347687 147846986470.664276 -0.000000	-14142419189.548874 16695100462.922638 -0.000000	1306354038.085757 1770152289.261304 -0.000000	-1306354038.085739 1770152289.261318 -0.000000	166071188982.058746 358172305169.014038 -0.000000	-109207140627.157516 212703103964.282196 -0.000000	36971083195.357338 46491924109.053238 -0.000000	55224913358.883095 71014157352.628342 -0.000000	-66970914423.041008 87767058862.318710 -0.000000	-50670761271.322365 64750307738.146355 -0.000000	50455683468.196060 61734082205.514381 -0.000000	97987494441.019196 209629222517.213074 -0.000000	-101136494304.073090 131633618501.818085 -0.000000	-73989616185.862320 150718103413.852661 -0.000000	76304768895.066971 168091469872.419250 -0.000000	1048768065.252909 1422102157.127142 -0.000000	-40411446836.932320 81925194321.074356 -0.000000	-1048768065.252909 1422102157.127142 -0.000000	24010261502.701580 29621010154.481335 -0.000000	-82064269602.532944 109826525277.834335 -0.000000	43136746501.804916 88707782641.879959 -0.000000	-67188886754.242004 146200080358.136749 -0.000000	-15982560073.379120 235057264881.349365 -0.000000	43405705067.311623 90532341003.696335 -0.000000	-56882419760.138054 122541422883.168182 -0.000000	139220594451.146393 308873867591.075806 -0.000000	-70916678699.103455 137712870430.792053 -0.000000	58620373284.055969 65847076138.868423 -0.000000	-219843079387.095795 290112082557.068115 -0.000000	19300319334.103249 129772638385.761581 -0.000000	3123949140.407420 5673840918.473812 -0.000000	-131265641858.311600 328763336258.052795 -0.000000	2535614198.378717 226285794208.644440 -0.000000	16356010045.488173 80301204445.462036 -0.000000	33748925585.164600 213954598038.572235 -0.000000	42083324732.728844 78546711448.918686 -0.000000	-12163703559.967697 43916616624.066444 -0.000000	-146707704068.059723 226187996072.025452 -0.000000	76100367982.058182 172674329282.019623 -0.000000	-23111104104.547394 46000731157.980225 -0.000000	-23086096613.953182 216874715315.389465 -0.000000	-19653215748.092602 107416903282.299667 -0.000000	33084413750.300602 39714955203.284821 -0.000000	-117492449159.981934 156630662356.988892 -0.000000	-11702814425.691084 78472158977.039993 -0.000000	30291035369.972420 62607153554.646454 -0.000000	-53556427569.284996 117467097801.962952 -0.000000	1467064574.822246 1920835894.422432 -0.000000	-18234175213.235569 24946439711.771015 -0.000000	-6871506769.826360 57752644915.295708 -0.000000	38889023819.671547 150765161182.393250 -0.000000	-39085979719.509148 149577559110.202484 -0.000000	8355671735.364947 78868617648.915482 -0.000000	-36014706470.877258 84603448025.577255 -0.000000	-33510789372.792381 46910014875.422333 -0.000000	3425493255.302788 7167505281.328720 -0.000000	-22681092597.060638 51026205410.588402 -0.000000	1604632165.995438 2112714985.948836 -0.000000	-14040598877.965349 19167659824.508526 -0.000000	2497991808.948041 5371574529.170055 -0.000000	-7941541759.967948 17579420197.341129 -0.000000	205925137921.133392 82670717743.117493 0.000000	-181779644610.680481 131743731559.473831 0.000000	22720108896.405735 216310070620.245209 -0.000000	22992185979.839027 164500970768.772339 0.000000	-80103624189.263382 127765603320.084778 -0.000000	48265637112.976074 13873596292.184175 -0.000000	-13671340924.462976 170753578109.880615 0.000000	-46632548967.880585 9548056176.951395 -0.000000	78953871215.022064 53477245816.905235 -0.000000	-28148172526.164249 92815626289.096878 -0.000000	-13674333820.891066 6213935512.606705 0.000000	12015837027.672920 210857913440.602020 -0.000000	-8323650634.574310 8093759331.333660 -0.000000	144198202894.882935 9334253150.958103 0.000000	92131887681.250183 40647327984.622818 0.000000	2566409505.145207 51275814398.719208 0.000000	-74335556498.509781 55066551917.265152 0.000000	-19476233517.568020 37932122639.909828 -0.000000	-64510298816.261528 28486694203.375839 -0.000000	149817718560.535767 34326974893.166611 -0.000000	46716469919.747688 13471296828.342434 0.000000	-160217666738.162262 197609866314.865875 0.000000	-65738483829.592087 41664861019.646507 -0.000000	15097424089.808609 30050701919.463825 0.000000	-1611239923.829943 49496543.884195 0.000000	5239873241.104601 3849640556.877481 -0.000000	4431526684.388428 145432498332.544464 -0.000000	-41152019301.020348 112510227568.201309 0.000000	-68919790629.784180 167148743517.702545 -0.000000	86672477861.685974 71722601607.272675 0.000000	-31647540436.229328 4668327788.108846 -0.000000	30102623112.837540 18398654345.534595 -0.000000	-85316963054.702942 48945943806.636826 0.000000	-24861908820.017872 6470053309.294885 -0.000000	45222445775.332237 28605078187.222916 0.000000	-8485733379.238401 15556051202.553919 -0.000000	31544191318.740555 10159901281.345848 -0.000000	-37915450116.418396 32778545459.940533 0.000000	19888290144.546223 28031282794.876617 0.000000	-60224497005.034874 22783372456.476791 -0.000000	26836337655.575195 165944029664.329773 -0.000000	-9194608743.101727 181266955538.126923 0.000000	34849403082.633072 17817370871.825191 -0.000000	-9886627909.537457 3653243569.535846 0.000000	58208584249.644379 178656572002.409271 -0.000000	-7088686280.859523 6972357980.737504 -0.000000	109600536178.913010 51034620301.269814 0.000000	114876545911.064911 7168626056.853022 -0.000000	125662970931.751465 13630030689.832962 0.000000	8683302699.645863 2550049847.811383 -0.000000	10562274704.638708 186701468534.834351 0.000000	-58744529879.779671 23363403202.523266 0.000000	60474204606.159874 125377472367.456467 -0.000000	-65956354359.507088 113762952315.783081 -0.000000	-237979668039.103973 120393386861.562576 -0.000000	15020192070.996618 401218947496.439087 -0.000000	192445383219.731995 57667880812.550148 -0.000000	-9159389263.474897 5473069369.205982 -0.000000	71538264405.990067 184302921099.418976 0.000000	-18129888532.892830 95443332097.034836 -0.000000	107999733127.947266 103519165589.238419 -0.000000	-49929315532.275864 53760769623.196754 -0.000000	-105595063350.941147 1021075859.437080 -0.000000	1557741783.931355 8518746418.023861 -0.000000	128778471419.667892 82428849918.058319 -0.000000	24257727724.654846 1039733444.932665 0.000000	13208973887.508841 95601794485.454666 -0.000000	11549441032.892090 8053372698.922390 -0.000000	33975494370.858051 117902314575.481491 0.000000	-90729243707.898895 125177331558.843735 0.000000	-124791514972.928864 136572609958.077835 -0.000000	96113112422.627502 55126306065.574249 -0.000000	-27203165189.483570 39838240469.097900 -0.000000	-80647051412.542648 26405921655.240585 -0.000000	156018171413.848816 104891992967.427597 -0.000000	-59733513469.464951 97332149717.312042 0.000000	13270581370.120583 20475636012.075630 -0.000000	-25890396974.373089 95140145808.745605 -0.000000	54929932239.180740 98292739020.738525 0.000000	32568839138.671562 168990179351.225433 -0.000000	-61446884802.758698 8843457923.035685 -0.000000	-49118135423.819374 91783543037.340530 0.000000	32938866987.250198 10721970042.685215 -0.000000	62858275751.547417 127998426433.852798 0.000000	-50607193119.274673 72797717028.684616 0.000000	12056134601.096626 758958813.270344 -0.000000	49557732634.265060 115083105346.313522 -0.000000	-22648612370.687431 37594846158.514130 -0.000000	6928090009.890363 3117046328.635068 -0.000000	79120612530.229385 262745672985.952911 -0.000000	114530701471.417175 252433275184.681488 0.000000	-16686100525.007484 26410445836.247158 0.000000	5660644136.131150 5655891792.112365 0.000000	-38627505272.311592 38673394426.110825 0.000000	-40828066550.720528 397343340.117213 -0.000000	3696929035.014072 2485908427.531055 0.000000	-13576190963.034332 237912961057.053833 0.000000	-46030938644.126968 10574761819.569204 0.000000	-21387300781.168892 219862214501.027496 -0.000000	47750266216.411392 32604669546.889145 -0.000000	7311473100.847520 65845310091.878098 -0.000000	-35380265116.563164 37834862762.823715 -0.000000	-34865173769.379211 79850213262.276215 0.000000	118517475336.875092 52190593403.152710 -0.000000	13138144267.251736 7840865080.645140 0.000000	28410073941.615929 160505039480.484589 0.000000	40906354842.437210 546107594.356682 -0.000000	47396953370.382004 139149304027.026428 -0.000000	569467388.402814 454012977.287741 -0.000000	-20888950202.112755 94857201410.613281 -0.000000	41214075071.511940 65915913222.830940 0.000000	-7609827832.081878 4324988944.040441 -0.000000	-109639929050.458618 40265692069.184669 0.000000	-303794658919.925842 202321044905.679291 0.000000	-29414162378.638824 311313502841.690247 -0.000000	209281745403.883453 38535581489.113556 0.000000	166676278052.440033 256503076657.153778 0.000000	-143257203798.713654 102241740790.020905 0.000000	100010663051.934830 6156888492.766471 0.000000	144995516464.048706 239299687014.679962 -0.000000	-86642556067.454453 34014024726.544979 -0.000000	78917891639.710831 98864636645.986099 0.000000	-152188621013.531158 69963373517.861343 0.000000	-30910063988.650600 47031971511.063881 0.000000	57011101242.603966 19488376923.324356 0.000000	-84172283689.832916 132884599026.517319 -0.000000	-14437008550.589802 4943721686.158820 -0.000000	150354949052.562683 91676601678.952301 -0.000000	-41617872648.227654 13196525157.627832 0.000000	33795009015.600380 21116814760.647240 0.000000	108006278585.610474 105525559870.997604 0.000000	-101433107909.453247 85094562810.024551 0.000000	-21910792700.060589 91791143708.175751 -0.000000	35305564055.870918 32960690931.726460 -0.000000	79600821229.814957 159656723189.282074 0.000000	-38634191871.503426 67828923170.251343 0.000000	-90422197703.419785 33962542049.788662 0.000000	57819197880.482101 89438192940.475128 -0.000000	-17712772536.943977 149353331697.202148 -0.000000	-78089014061.788971 89529581049.269531 0.000000	215670414066.331207 9954019110.753761 0.000000	-38892769334.081451 40137819989.704643 -0.000000	184560386683.022919 118817985454.278152 -0.000000	1455410829.503623 115668999.146593 -0.000000	-109448697816.170090 105906905092.844101 0.000000	-102931472461.348907 185335134221.600250 -0.000000	87849448307.795822 117237896739.987244 -0.000000	-130642533041.919556 86529870913.985275 -0.000000	103598987586.931671 52848271220.190170 0.000000	-2600892989.188785 18296058473.310272 -0.000000	-119457922225.041458 22723662065.695938 0.000000	-5362783504.564819 202929151560.546295 0.000000	105447522526.648438 122191570875.375732 -0.000000	-282991971924.705078 300806489002.758972 -0.000000	289279993226.081909 59818437952.841873 -0.000000	52340493044.665428 94126312940.863297 -0.000000	19361261293.575188 3471377409.891812 0.000000	-31111574178.759216 25188704851.968136 -0.000000	182723864211.714783 23272933797.414101 0.000000	9306954160.042194 209092971197.653778 0.000000	6131184393.711181 84177007418.476883 -0.000000	146293163988.740082 124347537853.242615 0.000000	-181517399215.277985 125889808094.703979 0.000000	77484237606.244049 245775269143.539154 -0.000000	-16647876639.577452 14822020894.379126 -0.000000	-95000466615.853424 99680496300.781525 -0.000000	129853032199.876694 8012492027.939046 0.000000	-11201183467.481270 145369093995.002350 -0.000000	5507653245.381903 8169906041.603797 -0.000000	-159587870141.410767 57704434004.053909 0.000000	-25970944705.554028 182864977595.768890 -0.000000	-104806194950.557892 233782166770.662109 0.000000	-47908684559.889366 135584652316.333420 -0.000000	56621936823.262367 98136875181.465225 -0.000000	-8104676417.639187 35968195953.722275 0.000000	60627742429.782295 126413277972.956528 -0.000000	-32135323479.366615 6619447475.165042 0.000000	39388520029.958900 36278740191.047516 -0.000000	-127935354025.546326 123472204120.434021 -0.000000	23916106086.517582 2717493267.413306 0.000000	-141218293396.740936 10390072671.160267 0.000000	-43838412622.013992 180965835391.053955 -0.000000	-40233715432.128723 22340289669.708557 -0.000000	108176894307.837296 71553123886.459335 0.000000	-30352324300.396351 2308681347.342918 0.000000	-125387307170.928085 156455339315.803864 0.000000	29689024633.422764 44794524401.047234 -0.000000	366222965.796980 11534187476.338457 0.000000	84714021182.562973 75235793443.548355 0.000000	77356404296.889343 44654777059.752502 -0.000000	-48082599345.338768 26806084014.559601 0.000000	-51463302735.319511 38665557949.845451 -0.000000	-258633615447.610535 256986017052.480011 0.000000	-2082613633.938946 172087398494.055115 0.000000	-44198344598.109093 40724885939.518608 0.000000	143445940861.725128 112986822463.039734 -0.000000	-105173457446.060150 81082574261.315674 -0.000000	-20843759161.652485 11917122304.106310 0.000000	50855702985.257309 18743998342.810734 0.000000	37949704943.649643 184027796527.290771 -0.000000	58969590441.865623 20343347883.734146 -0.000000	-115147764424.983749 3468767494.146205 -0.000000	-10749683397.213387 13208527808.187967 -0.000000	-92210089954.748489 75537668156.603775 -0.000000	-262204594557.400269 156386829985.741852 0.000000	-9580095163.161831 209681262340.402649 -0.000000	-115861472899.208405 152850773951.674835 -0.000000	24490891515.671925 1702566523.689686 -0.000000	-16418486214.855055 11750294056.431715 -0.000000	-47986165134.992767 156718020519.776886 -0.000000	63427961286.808823 153620746408.156372 -0.000000	22721924197.331188 48302573024.330032 -0.000000	20863144054.978374 26554512236.929161 0.000000	23066589488.387489 5220627297.002886 0.000000	-29202600415.317787 52642645535.566322 -0.000000	27959671361.262619 9089377171.742353 -0.000000	-9008243801.899771 96882101255.110764 -0.000000	13073696566.897322 5465103665.686243 0.000000	-202854976168.004700 53140837816.864029 -0.000000	53613312084.082535 71177277746.305862 -0.000000	173874321626.952209 156151882085.254364 -0.000000	-5694894002.250360 112956532269.289902 0.000000	-69840124743.878571 82379347993.046661 0.000000	-164827228726.778625 33514544159.964436 0.000000	-86223118770.101440 84748945654.544754 -0.000000	285325752.206645 117046038.496449 -0.000000	37057455056.971977 282378797052.293701 -0.000000	-74790628305.187256 31387800459.976883 0.000000	112516317126.261597 20113885262.239429 0.000000	6905541587.572152 25522286249.125713 -0.000000	135051135900.287231 6342766907.442654 -0.000000	-60799945734.188950 43467622418.527550 -0.000000	86754180235.891098 228056379458.235138 0.000000	168653692854.327209 7026513118.059385 -0.000000	94448356568.197357 113685302223.139877 -0.000000	69756746.848036 1442314111.512877 0.000000	158802192680.893707 84533269188.765594 0.000000	-58956184010.965050 62762253519.653267 0.000000	4595237379.815924 75269860458.374329 -0.000000	-616209689.895086 660345256.725148 -0.000000	5738768484.535384 33045395084.351818 0.000000	-12393551990.772247 30756876776.617378 -0.000000	30219995379.967579 91993482264.966690 -0.000000	-9410491214.667362 54188953257.086151 -0.000000	-85036908159.470169 96204387897.215149 0.000000	29676707602.322517 22164264614.154312 0.000000	-8959573568.401176 34733023788.210655 -0.000000	-107221760016.430222 268481478279.189758 0.000000	-94830506350.617615 228720211317.857666 -0.000000	-69237724873.518402 18628672908.690228 -0.000000	44767885223.399559 62414842406.470306 0.000000	-1520912644.015870 493584571.550466 0.000000	-78308275981.448013 93028887517.874634 -0.000000	-188991709634.589539 38633452983.068855 -0.000000	-128990829151.738281 86483848172.633194 0.000000	-2875121460.949497 65246684027.502792 -0.000000	41254348972.525940 32243577513.251354 0.000000	-67993006306.811913 37212245207.214195 0.000000	-191013679093.363983 184113726808.234955 -0.000000	-10024135389.168013 59592798303.986618 -0.000000	39780823082.543602 23037513209.445290 -0.000000	-112168368256.601654 69586328848.786072 -0.000000	34767798306.535439 33900941003.400944 0.000000	22451805656.603523 7558605873.976101 0.000000	-17960240909.696217 6199173046.921216 -0.000000	4880947700.006723 39620483964.103706 -0.000000	128934749385.142639 64347808051.171875 -0.000000	-44346364432.139023 72057283196.439743 -0.000000	43957554062.636360 133972883229.519241 -0.000000	10264885375.471071 4628145225.513148 -0.000000	69786635018.397659 116496633311.048767 0.000000	-112790268057.653641 213090509951.716614 0.000000	-9237087808.609335 8167319561.278400 0.000000	96525292182.555695 205455269995.861267 0.000000	146875326954.767059 120688227810.048950 -0.000000	-28441125519.477600 27698237835.380787 -0.000000	-84397130778.989365 84883533834.744217 -0.000000	-41009958778.940529 86279569893.165314 0.000000	179000854743.302582 41726897813.845276 0.000000	-52466140899.321953 20337575055.362331 0.000000	-10104036077.445496 145449470452.613495 -0.000000	43751985016.511971 21388169793.484241 -0.000000	124759343921.033890 56846425607.888359 0.000000	-32154405606.270546 54733943765.340324 -0.000000	-7090065221.494443 2641085222.963272 0.000000	169764974501.031250 207502923913.529968 -0.000000	33849597302.392979 18279651595.854607 -0.000000	-120012619830.150314 136158808314.055893 0.000000	16522898286.380865 123802277168.951584 0.000000	14229215720.575850 61361792020.583275 -0.000000	-255784627783.299957 128837821270.614105 -0.000000	-1189914925.865685 5477237211.332193 -0.000000	16505978340.717930 29918916742.017090 -0.000000	-233762955929.429077 129011163994.189972 0.000000	-52975074357.636955 47900499964.017441 0.000000	27241774824.564922 20643597177.035324 0.000000	-41505536914.818611 608691557.875627 -0.000000	27910460563.092903 66923137188.539185 -0.000000	66439145881.518120 12310353144.177198 0.000000	-28711093308.279732 14753695165.728992 -0.000000	155704809579.705933 176281173906.198792 0.000000	88831061300.974686 27498775393.505772 -0.000000	-10032068330.942425 22833335389.366619 -0.000000	77859769303.284027 159734612166.679108 -0.000000	233709419076.709747 60046627172.780251 -0.000000	22470630379.980618 49190620755.651093 -0.000000	-44662465957.192223 18310025522.173534 -0.000000	2128023103.978076 69697520886.104248 -0.000000	25418037093.812290 222855139923.443481 0.000000	-51801692823.734215 165271971672.741547 -0.000000	-34995051186.478775 24344676881.317005 -0.000000	76342153988.005264 65821846863.117500 -0.000000	-92624790923.637527 13751280171.403549 0.000000	-16255706417.772875 2520815118.008012 0.000000	-24435032347.313843 109609393731.494217 -0.000000	71313657036.421982 64013679944.927238 -0.000000	51956318119.616013 181510277966.437073 0.000000	-3330565601.120183 465941816.791488 0.000000	71544426885.402145 42449629935.246170 -0.000000	40808453487.162659 236809543988.383362 -0.000000	135010380493.513687 63739212098.963531 0.000000	-1752138698.644619 1390747633.725091 -0.000000	-59779035472.156418 98826701442.569000 0.000000	117772423708.308578 100308255960.666748 -0.000000	-155956435329.656403 217948595497.348206 -0.000000	47497949469.555191 26024034971.302624 0.000000	12268782091.258835 54711259225.110199 0.000000	21930229807.438938 33595824451.751694 -0.000000	30119976870.020126 37327596.391422 0.000000	-6953648350.039868 2943531148.805429 0.000000	-569465104.123577 2573753192.360434 -0.000000	-50547434332.064354 39709888975.488739 -0.000000	154588244992.973511 187227974699.275146 -0.000000	1898355319.886363 4542265522.782561 0.000000	-157359421354.018951 134333996110.918732 -0.000000	37450379439.017487 100872340509.545120 -0.000000	24798537377.173332 9025776639.876333 -0.000000	13559811760.253368 82077448821.381470 0.000000	48680465780.854065 61289519098.774933 -0.000000	-732288027.305651 84326820491.733612 -0.000000	3864561965.236772 4155813496.398184 -0.000000	63329221.871255 806116225.898711 -0.000000	-124472455179.433090 157694064256.090546 0.000000	2497930061.393489 39260615703.378700 -0.000000	90406244093.500397 107810950412.777771 0.000000	12117235467.762064 189212400768.604004 -0.000000	-2016934808.018784 2973486670.594343 -0.000000	83755207228.547791 10653176150.942835 -0.000000	-54017589034.584015 107937899159.149780 -0.000000	77755632055.854752 33003675304.343510 0.000000	108954619727.382217 177297774492.692200 -0.000000	128836225392.843674 44485020248.667786 -0.000000	103958960.928396 192411601.632251 -0.000000	4798773632.863857 86246600927.923706 0.000000	-78776825905.174484 95502103119.804810 -0.000000	35620274377.917976 14845341129.183924 0.000000	36179185195.836945 112106674906.382507 -0.000000	-6375053546.212259 2810299144.740020 0.000000	-156434387091.937378 146613923401.462402 -0.000000	-5385016927.365796 31259558421.257069 0.000000	7653619810.691160 15325110237.560961 -0.000000	-77400912584.725708 48479558899.103539 0.000000	43357477105.776505 17457284411.444584 0.000000	101361711451.473358 68254255923.189545 0.000000	-15769527509.290655 21185138709.334076 0.000000	62349004337.305481 91834643017.472763 0.000000	-47722738400.557152 90486630170.163742 -0.000000	-11910121377.281645 16340055348.083086 -0.000000	710331478.102969 2774513505.322339 -0.000000	-56546703155.332008 12019420213.253431 -0.000000	-67003136932.411179 106471684692.300034 -0.000000	7513017673.529437 11312425267.697212 0.000000	-3394321897.717786 1226156537.589521 0.000000	4704984906.715210 8835339100.882437 -0.000000	-8253090324.822071 3261039112.051300 0.000000	71829770649.102631 160675088450.255157 0.000000	-49827327808.091164 73382064590.096024 -0.000000	64445148820.976395 118738505942.437241 -0.000000	46966586649.212997 9152171246.320042 0.000000	9629777567.023273 65576716782.785454 -0.000000	1080249215.329944 1148908452.740705 0.000000	-1080530312.165192 1152759404.425829 0.000000	-34436462730.686760 41373891944.051170 -0.000000	69851877862.969467 95599556269.978561 -0.000000	67747477942.691109 59656953764.038109 0.000000	-20808478543.050442 64139006234.298714 0.000000	4427842568.359019 7926061518.170787 -0.000000	-35532227938.487968 12143445875.340950 0.000000	55843278731.141579 98122057767.639740 -0.000000	149052670253.048859 58714065524.675484 0.000000	-31315664052.215839 92967409262.433228 -0.000000	-15414162969.644466 6855689603.915958 0.000000	26128007732.208202 90160435402.374069 -0.000000	-19689245229.168934 29009260974.827480 -0.000000	-830317827.517883 145497630813.375458 -0.000000	248434130.678344 7493883137.780712 -0.000000	-44378078603.454170 1395041026.508875 -0.000000	-6775395548.405212 3241779783.182509 0.000000	-7221871131.220419 118880841927.385605 0.000000	13007025650.675350 96648681748.499146 -0.000000	106623854.260048 76559925753.318893 0.000000	4613739726.130110 5471385084.192928 -0.000000	-28162511768.619987 92999364679.993073 -0.000000	-23071640311.825783 5060021079.178963 -0.000000	71287874015.795029 4342282614.954515 -0.000000	-44438492862.277191 12744930448.195429 0.000000	-70923974050.140167 78776836093.708679 -0.000000	92965731573.207001 64236848872.422318 0.000000	-129050302896.875275 3581804325.300923 0.000000	124495625902.917953 51166386730.359482 0.000000	130135516136.507889 93599345296.239639 -0.000000	20029984021.356522 15176186612.723314 -0.000000	72408781930.970261 42460474553.085167 -0.000000	-65401427534.146461 85442455936.705093 -0.000000	42740033290.788353 10024946598.476397 -0.000000	-45442896289.147430 68544589697.902420 0.000000	16202979993.109848 17528272571.559414 -0.000000	-26074843843.048435 84770387627.759720 -0.000000	137793597695.938477 198574455643.241913 0.000000	6251757490.743583 5921558010.940322 0.000000	-17396103818.683853 17968741523.255688 -0.000000	1267194715.790074 339943454.524003 -0.000000	-47972903444.133194 66564277470.275856 -0.000000	115598425450.030975 74821748398.935669 -0.000000	46410709998.337883 20557811105.518497 -0.000000	-127264221314.423065 78447867869.264236 -0.000000	-10993882558.278141 24122907086.310883 0.000000	28004947328.016750 32193971876.036160 -0.000000	-1538186086.857273 79495119872.619858 0.000000	-26390832089.837597 46100524743.282463 -0.000000	10449828186.797783 13661665010.766680 -0.000000	96508634843.307388 19605963395.894539 -0.000000	251720978.881325 2777617243.032421 -0.000000	-3236334768.418058 126758692551.109604 -0.000000	-4529712200.325977 7093008063.030663 -0.000000	-51900974934.030586 121585890632.495392 -0.000000	4755061764.897290 4205531073.718498 -0.000000	-24097318427.316849 126627521671.287949 0.000000	-2103313958.752876 2223913530.449264 0.000000	135354806191.509140 102854637430.010864 -0.000000	-18640911710.033543 12742559029.438877 -0.000000	-25796412696.804024 45552909808.004234 -0.000000	-9941517030.977482 23449672473.678280 -0.000000	3034510236.967203 2525559665.052729 0.000000	12519894784.335962 94393329396.674835 0.000000	-68692580927.975563 73769704658.847107 -0.000000	-18313394909.622444 52486833271.633133 -0.000000	-47126046595.533562 2255688869.414294 -0.000000	-82896078523.613724 20065499380.949070 -0.000000	21094217528.936142 79561109135.317627 -0.000000	-29732713663.902885 8264704361.340616 0.000000	21288159686.974754 21813863874.652355 -0.000000	-85214470288.390915 207158137792.047485 -0.000000	-22663464411.957245 84855620207.785568 0.000000	-4265341013.634792 34547691182.442352 -0.000000	61633422384.879242 68558860442.156311 -0.000000	-14378738659.055868 2806131603.216831 0.000000	77236363272.906616 7707696697.172361 0.000000	139462593030.736420 116780970817.780014 0.000000	-38775063293.859955 12335743453.766941 0.000000	-45477916940.622551 46160579185.511047 -0.000000	105501034253.729080 127643612340.741440 -0.000000	2916606786.281848 10699603023.206734 0.000000	-18515083102.868916 28098295280.921551 0.000000	-22536644188.058224 8339098796.684293 -0.000000	4816777789.669168 9476051483.869734 -0.000000	85305013326.939926 76675580866.991821 0.000000	-66640628101.017502 50692598930.237099 -0.000000	78717282263.067535 141246166224.491058 -0.000000	3091410042.974167 19810241895.196495 0.000000	-127352330973.292801 88704136294.024582 0.000000	11943437680.537178 7265995896.718133 0.000000	-5712981596.179830 77309198943.474442 0.000000	-4841104143.946583 4332980460.083245 0.000000	-26458066367.803501 20904763191.122387 -0.000000	19754753740.170536 6014333268.552575 -0.000000	16561819008.637615 25730646146.669731 -0.000000	-2091027017.840014 11938258081.088007 -0.000000	24814964409.697327 62181348018.078972 0.000000	-23176099963.277763 29747478724.963509 0.000000	-35846577028.212143 65742203456.839302 -0.000000	-20779915215.280876 62727677492.839935 -0.000000	-98672454312.483383 54864895515.720070 -0.000000	13725494060.472097 19748754715.068623 -0.000000	37431196308.002464 11056511337.297274 -0.000000	-64333096396.389290 6592541850.673642 -0.000000	63659273375.881378 87985549457.026184 0.000000	-97460560129.855209 96709509455.765915 0.000000	-1435954346.038489 173894071305.252075 -0.000000	602124370.234966 43588218.237795 0.000000	-5851757464.877481 3406372788.208987 0.000000	445651991.426665 90458902239.097153 0.000000	5347768368.061331 3059296403.025154 -0.000000	1130116739.611244 71721096869.434814 -0.000000	45660883532.508965 113240865923.175690 -0.000000	13690296891.001354 115189304065.248337 0.000000	-111611259908.024857 124762521061.989304 -0.000000	-115058397403.500320 58991992566.264366 0.000000	22698085768.821205 8421460825.250943 -0.000000	-45218559695.703331 73305243734.988800 -0.000000	18434242440.361233 13937388767.268593 0.000000	-67192152747.498833 2255550743.562102 -0.000000	25473058020.284180 42068940028.187485 -0.000000	66310089639.352425 13091222709.168390 -0.000000	-9298395702.403271 158828051166.541504 0.000000	53028977765.269226 24344404227.061745 0.000000	4071438772.383343 26984578676.027790 -0.000000	55396181543.931252 21576968516.263134 -0.000000	-34449852449.926086 23532234619.311470 -0.000000	81719727368.971039 11246610989.140030 0.000000	-25681574201.214569 10000517313.994822 0.000000	21806427735.230911 90695303679.011688 -0.000000	-42632160602.499290 110136773524.389679 0.000000	24851302597.619591 4525523085.958771 0.000000	61287317242.102875 68412624896.767708 0.000000	-1674283937.372176 41336106169.994507 0.000000	6150062719.574986 56083804512.045128 -0.000000	85829665676.541534 36350688987.323296 -0.000000	-20718512078.682590 105280735451.674561 0.000000	-20807642403.234451 53613823941.397049 -0.000000	-42202806914.406387 6159999070.237954 -0.000000	5554325357.538841 10806107986.810099 -0.000000	372407284.608360 100000871.849341 -0.000000	-6030595348.942064 3684346446.429591 0.000000	-43024760231.773331 1473942671.346493 -0.000000	-75853223845.713562 149340344288.514587 -0.000000	13228801341.538422 14502955390.750923 -0.000000	-122099986555.156464 57299481.745174 0.000000	44918034997.965141 139969175649.217773 0.000000	38871091049.885727 9002681855.508059 0.000000	-851427552.083057 609327599.533989 -0.000000	20344212082.726295 126980601017.372162 -0.000000	49995935178.186600 18154408986.760315 -0.000000	-25202744726.950272 21442242378.729431 -0.000000	71264037965.809891 71005611699.411530 0.000000	82239193134.249786 67668050900.166809 -0.000000	61611847.953705 2750309978.928144 -0.000000	-5901231576.468039 5039153290.077267 -0.000000	-129244758412.932175 136665293409.785629 0.000000	94911636254.542221 53394674860.752388 0.000000	-75314181038.821503 157964471114.398438 -0.000000	945132177.005885 1756914957.528712 -0.000000	-23539337122.865017 56524441685.133957 0.000000	-17033364740.602562 16029865427.183020 -0.000000	48834793663.192177 76430706707.928879 0.000000	1569362745.637206 96457234049.979919 -0.000000	56754387001.020668 15901671488.820818 -0.000000	49433602990.377869 94332226176.369354 -0.000000	43801166181.968941 39825843884.336472 0.000000	23032484988.650742 156817583947.871033 0.000000	-2407069262.127457 3021388185.473886 0.000000	-50192151604.142029 28155823861.979641 -0.000000	17747705532.276508 75183651469.848160 0.000000	176071005.363098 65040687.807155 0.000000	9051185255.113943 11973977846.881460 -0.000000	-907273242.988063 3397961780.620542 -0.000000	13153672223.993967 160160765816.799622 0.000000	27764529884.079960 198972211326.898682 -0.000000	-9401449304.036716 7064725825.085326 -0.000000	-54856426167.085052 24231661275.594509 -0.000000	-33773377047.185333 9955054134.893223 0.000000	-23114864399.421276 71107355061.177505 -0.000000	19934241053.269741 54402845822.899147 0.000000	-14404410025.042183 42822253231.590515 -0.000000	-22564902013.442352 1427339176.140461 0.000000	-19657505697.493313 48314056647.657089 -0.000000	-11230292630.884228 59774182783.411659 0.000000	35438799352.471680 66699868069.249229 0.000000	-6836167078.450292 14222349302.260593 -0.000000	42104638424.311493 104862764712.542221 -0.000000	18308251524.826374 8025461114.708164 0.000000	-105285558374.220505 6723183608.128622 -0.000000	11722099628.129316 30698077795.005516 -0.000000	-36676609141.444748 15481034910.034010 0.000000	25133978791.059265 56074821534.540642 0.000000	-36943615962.466354 81266857571.938904 0.000000	18899318857.393406 6231030952.143791 0.000000	-70184329848.062057 70176365991.538971 -0.000000	-165374373.172234 10408686339.625088 -0.000000	28842976141.563644 32882675184.619492 -0.000000	-41341952485.426277 32650043869.691143 -0.000000	21660198205.522308 37700745532.382889 0.000000	68851348712.282455 37580917770.853867 -0.000000	-7513445047.512023 2773485986.627129 0.000000	-83778180233.715088 8007628658.170277 -0.000000	24051697143.886475 24383977618.484707 0.000000	-11138640180.258041 96841525674.344574 0.000000	-1560372121.861782 228402804.966491 -0.000000	18983755362.443546 7522860648.642636 -0.000000	37292469002.739990 64124442731.923027 -0.000000	-33466931933.308952 15518909980.126360 0.000000	-44377062665.409767 87331769186.191879 0.000000	-51628197582.095779 37209928976.337471 -0.000000	35250372105.182121 126375833395.654388 -0.000000	8938224407.698694 58521347766.756187 -0.000000	41486987934.415154 48377088917.479233 0.000000	-90518948934.952759 6184883484.061255 -0.000000	-53770032149.216637 116378793784.229477 -0.000000	-163492606735.771515 61565067552.487556 0.000000	-41610716567.725471 35628593386.778770 -0.000000	-53649746387.182526 43326508197.534172 0.000000	-3409663015.062649 7376047323.852654 -0.000000	35762717758.648178 82850984414.883514 -0.000000	32666912653.101307 112138810488.227707 0.000000	951488240.039933 4253886590.997192 0.000000	-90770668822.579178 50350031593.849602 0.000000	13185174741.581966 15631815858.496700 -0.000000	-28739147397.149971 23128629593.749992 -0.000000	2573733526.885993 83710443767.385345 -0.000000	-11977627871.988977 200943341344.171326 0.000000	-62531416980.309593 13910625091.441761 0.000000	67522426292.377731 116784981686.817993 -0.000000	-1711207168.049728 5694443434.438105 -0.000000	16794295515.217335 53642480723.280792 -0.000000	-28238184794.013237 114262395036.771225 -0.000000	-14564821178.852026 6501421692.834843 -0.000000	-12222628269.199852 7875211628.455241 -0.000000	-8824750103.857302 58083442439.342995 -0.000000	45540833480.120338 89813821241.142776 0.000000	23173845137.190384 26826766513.270241 -0.000000	-37588623068.875061 8373500808.266133 0.000000	-3085240636.993134 949354629.127705 -0.000000	3736303782.654388 166858173410.965179 -0.000000	12820705262.217777 7552742321.788915 0.000000	-52826221035.473022 182820896976.005890 0.000000	61603459312.323517 31324206306.862766 0.000000	40303529956.309959 5667051531.513142 -0.000000	-4510073057.159712 5488720890.980161 0.000000	13428980216.898922 26826525871.497738 -0.000000	45875120607.441536 43833500992.422371 -0.000000	-78459505420.327057 6398781852.639581 0.000000	-44737414267.765831 46198916271.210335 -0.000000	-68663796751.343910 15125445966.652750 -0.000000	29988430868.069077 16607601093.205542 -0.000000	32556760216.147236 14451358559.951818 -0.000000	-24284153591.651375 19620608663.777115 0.000000	-36259334959.305473 23391945799.973293 -0.000000	25748750484.239388 224629053883.286377 -0.000000	88905956532.441101 59177452573.186119 -0.000000	-33135923052.272053 114709941171.085541 0.000000	35762913333.047409 60430641482.057266 0.000000	-10209039168.297312 140068769.436119 -0.000000	13968591788.870766 164608379019.525909 -0.000000	2156903260.545164 671453144.046285 -0.000000	1081157727.820660 21262530375.465046 -0.000000	31085840783.133366 15554038151.093832 -0.000000	6866032293.487058 35013140398.210403 -0.000000	-2410435437.814314 894338862.025416 -0.000000	65258040522.476234 136503033472.398865 0.000000	65616820817.502274 83757941867.048050 -0.000000	-32966573146.842716 47707915013.694206 0.000000	29760736.906105 7570941506.743980 -0.000000	678431898.585672 637858604.223099 -0.000000	-78769442220.711151 118990188554.510849 -0.000000	15661862523.264671 22847233143.257359 -0.000000	79903328553.192581 5464996442.867942 -0.000000	-86161399167.527908 64284238297.532310 -0.000000	17018456890.730650 155571919461.894989 -0.000000	-27838873398.205566 17439026002.580601 -0.000000	122701259891.112350 118095261637.094086 -0.000000	-9368174525.214136 11080496652.457815 0.000000	-19573716953.028423 53416680022.655159 -0.000000	27782424022.253551 55661665582.766273 -0.000000	38056226174.457481 102993998122.990341 0.000000	-34837891651.863983 83113992235.080292 0.000000	73633952901.056870 91437415646.796036 -0.000000	-28973156036.331062 1247489196.110676 -0.000000	-1619942804.929018 1999028341.159451 -0.000000	8219891326.193010 20901793860.469891 -0.000000	-15096643204.636328 46647960983.861969 0.000000	-7466161856.671715 3385798447.926331 0.000000	15987081337.466431 13196443850.872578 0.000000	-24968184856.450920 55348966972.962509 -0.000000	-54081572303.130295 42899002753.225975 0.000000	29486882961.088539 25524962942.951874 -0.000000	9375539982.869097 45810444770.048050 0.000000	-54442896167.216469 51322543359.869514 -0.000000	3622959125.055893 5499960288.781569 -0.000000	-16204169534.863756 434729439.299140 -0.000000	27799455793.236710 32266055811.020313 -0.000000	150799024141.031097 41855756092.952454 0.000000	-45459590466.226700 18044770285.125549 0.000000	-873462656.221389 3537767514.716969 -0.000000	-16054375369.822878 19991664049.919018 0.000000	-15062580117.447527 3392975125.973427 0.000000	-10239362566.954565 87553286370.201157 -0.000000	-80958082536.402405 33170604034.733170 -0.000000	119497805040.477814 84230128757.517395 -0.000000	-3569182589.501102 20877100748.015808 0.000000	-29849778704.351208 29660025477.083817 -0.000000	-8419007518.362940 6828316952.642743 0.000000	-22514723364.534664 10681462063.710041 -0.000000	7473142262.054250 7866043778.869954 -0.000000	-6733405982.447886 86237528048.266418 -0.000000	35560956999.523338 5205952101.013994 -0.000000	-40859366054.550873 28030603019.204132 -0.000000	-21430875014.406708 218953688245.064453 -0.000000	-24018423934.793621 7625963000.731960 -0.000000	-42052277331.903320 21544569413.211540 0.000000	-60516992738.878242 11500156079.052050 0.000000	-16328319736.634665 10733013303.738466 -0.000000	110472366256.737671 26040474143.863251 0.000000	-141489021334.941101 93696034290.041245 0.000000	3168757247.620590 47494409960.601173 -0.000000	2262271909.358006 2487000162.470779 -0.000000	-38609180509.358620 148151750514.112274 0.000000	-29395426229.809376 8208490529.192005 0.000000	-47892722812.993896 137603695813.585388 -0.000000	6408265591.744081 11322289172.498152 -0.000000	37236666252.452759 2492606347.469633 0.000000	30384824235.033775 76560951902.429367 -0.000000	26799813504.708797 11027710374.906841 -0.000000	13020101474.574841 22574334045.366081 -0.000000	-16780317245.547125 111039231594.688156 -0.000000	-26613304821.213840 10555041757.054117 0.000000	-7722090300.510543 8696333790.210733 0.000000	76392985253.149582 72762365300.422119 -0.000000	76781304060.493057 52616705966.547478 0.000000	-54141844504.356598 28165964809.785431 0.000000	-2984586112.499943 27578974704.239323 -0.000000	-10217124730.382345 4708806881.133424 -0.000000	42822593777.512230 23339630720.432804 -0.000000	-25902407149.292568 73255411430.639557 0.000000	-53896058744.867584 28803592688.582829 0.000000	32430784809.967411 21895229996.727299 -0.000000	90835900525.417603 104551849221.983826 0.000000	-79871118336.604889 124003445337.861694 -0.000000	542363915.553234 164631780.363830 0.000000	2217619468.043041 3191106374.747871 -0.000000	-117721730542.813797 94724886687.739777 -0.000000	48515497433.768150 7014763627.809276 -0.000000	-7955018964.241199 37025053319.050911 -0.000000	69986117987.317978 193747111692.188080 0.000000	-81095853911.565506 64309505349.940498 -0.000000	-8897419793.095343 142221960051.974518 -0.000000	113410039866.610687 57380945072.853004 -0.000000	-1900940246.593707 12496240481.796125 -0.000000	33303165549.659691 30589991245.045486 -0.000000	-39851792584.545364 70931546069.420868 0.000000	-42750585898.641907 31832018555.580784 0.000000	-17834530738.492188 51097004935.101402 -0.000000	22873631083.710510 63655059508.622826 -0.000000	59502202752.523155 155825953767.649445 -0.000000	13383575940.104555 5121405574.200751 -0.000000	123017266102.066391 28608429540.493587 -0.000000	-40128691079.287971 22343971273.322792 0.000000	-2967309700.707349 51143992542.038490 -0.000000	1484162571.394769 1578971330.224481 0.000000	-18390543547.577541 62490059273.652908 0.000000	23021390332.794235 9824280489.945721 -0.000000	25206796246.484097 47687954694.956619 -0.000000	-9448103230.509336 9544540080.362123 -0.000000	-47238250704.981590 35897027318.892372 -0.000000	45955698531.004501 61195707958.380791 0.000000	5830868655.319686 1489058334.790953 0.000000	1167914635.671042 714238338.221477 -0.000000	23516756925.011894 122055119285.222549 -0.000000	-39111005439.512070 11079339037.616695 -0.000000	-8968268447.470613 34224473130.409225 -0.000000	-11516615787.916985 20047492631.087341 0.000000	74453463805.212646 84071230081.436859 -0.000000	92190873357.234314 127205553611.587204 0.000000	93524187935.425797 24813783891.602566 -0.000000	-38059215712.691887 70196286221.813675 0.000000	122165608345.843079 29598211727.908051 0.000000	181597713879.017212 6095926009.606876 -0.000000	16849812356.189178 91562513200.333328 -0.000000	-57758878562.282013 48855239711.084824 -0.000000	-10517450742.119537 53444963559.601089 -0.000000	13696970087.779644 21698585447.315907 -0.000000	-89956690022.236343 2791759345.517534 0.000000	-6490043047.733975 27329973312.071854 0.000000	1599401098.065701 523836928.352927 0.000000	4164036722.131222 58752623755.682114 -0.000000	5366246880.188369 2643429291.823141 -0.000000	19895190747.214561 55225640649.357323 -0.000000	5561745425.012653 599853171.493508 0.000000	-52240303486.823921 76117889432.146835 -0.000000	5005432396.554785 3244514065.853285 -0.000000	-7000973507.865232 393082614.941433 0.000000	-32050344543.263287 64037235376.444183 0.000000	9066901694.284077 92627297238.266571 -0.000000	-24109592491.614765 11953060272.928982 0.000000	-47307003312.517136 94634493909.934814 -0.000000	-66308666283.027367 76317565316.027390 0.000000	80762390185.483810 80599294857.508957 0.000000	51029856429.513397 42624803258.000504 -0.000000	-32033637364.491589 22245136034.653698 -0.000000	-7590161884.120884 39130666267.939247 -0.000000	17428483657.102268 2225501609.552146 -0.000000	670025370.594864 448537281.348179 0.000000	18376493395.205524 11275552780.062170 -0.000000	-34887353282.943298 35998464979.928047 -0.000000	-48195559683.807716 7592899759.942094 0.000000	28048162783.155792 7790549691.106160 0.000000	-6631923543.794105 31845082.343181 0.000000	4522346569.023649 491713849.347391 0.000000	-16051950058.226931 32513420295.751545 -0.000000	-46051026228.220764 77651666970.694992 -0.000000	81516792790.995758 74304121642.543243 0.000000	-16131243683.843630 67653421770.169579 0.000000	7603233605.656444 60191691608.874207 -0.000000	24719809659.688488 24266450304.664917 0.000000	28864127793.298199 29146226629.396652 0.000000	1444944402.878824 53020314367.915520 -0.000000	4615122311.094073 2471006081.263600 -0.000000	-13236334752.364136 18589024781.396072 -0.000000	-29960274415.607773 19080156103.697853 -0.000000	11268527066.137039 13441424692.335890 0.000000	-53573559891.188316 61364527868.999840 0.000000	157777131673.421448 34004951417.519157 0.000000	25493710265.280724 21205101671.765694 0.000000	-15574733312.181246 110810819337.528732 -0.000000	27831895708.782127 18770468328.080547 0.000000	-26164197700.892365 36759341107.650696 0.000000	788503764.716485 2581252179.278098 0.000000	-15072027888.036821 8833735073.129618 0.000000	-9978882705.598829 10588880958.245804 -0.000000	1237309625.574389 4410739834.819207 -0.000000	-2293081851.089032 578792384.371199 -0.000000	-4884776172.064617 16397898089.353703 -0.000000	-56245421527.274063 11354160348.491421 -0.000000	-13705286099.642826 3226690708.285682 0.000000	527791871.303318 566274271.520561 -0.000000	44237224063.116028 62167177893.078499 -0.000000	-28133448346.508617 7437680023.658689 0.000000	5039059295.441471 3562179447.616993 -0.000000	74795057173.680176 11473810281.938389 0.000000	66434186780.831779 12820859049.594011 0.000000	-21280452885.998909 42343292561.712540 0.000000	-2124408113.406250 1966701595.996123 0.000000	-1739083244.888256 100764415.092510 -0.000000	51622543761.137009 51260857148.798187 -0.000000	11337504251.259945 34883855826.910286 0.000000	504291656.274232 1002284353.570478 0.000000	-47096632157.845695 15171606354.917559 -0.000000	18747562749.212780 683001438.014069 -0.000000	14869409766.817829 28966433214.782635 -0.000000	-22279198638.938961 30931726560.389423 -0.000000	-11025407015.538649 76469261799.377350 -0.000000	29793096207.220993 19831679666.313538 -0.000000	44790684461.490715 24721249674.544651 0.000000	-14873962562.077011 8716813506.203485 -0.000000	-4320086864.477250 6696402801.756412 -0.000000	-45680278518.537605 46718601803.444756 -0.000000	34773525215.340813 8801070622.262772 -0.000000	-10404555150.487614 32956620459.635445 -0.000000	15546373515.497988 22258319130.532360 -0.000000	35357307190.654655 19935117963.676079 0.000000	-16595968242.984636 52530771344.782715 -0.000000	-9676753319.311613 4840748412.920433 -0.000000	2228588777.246917 1833681559.576005 -0.000000	14940293794.148464 25680181489.711651 -0.000000	-127220443.390014 56669857199.032928 -0.000000	164527965171.440491 150234445705.854218 0.000000	-26109359381.600498 18604971181.983322 0.000000	-25768871198.203724 241199441.099572 -0.000000	7800797274.039227 4570256326.437518 -0.000000	-18588980107.155151 82224934287.451935 -0.000000	-17762793049.563026 155790638945.600311 -0.000000	-51207538546.843369 502091598.764672 0.000000	-579960401.737372 1983969488.781676 -0.000000	6889037485.556716 12313945855.110556 0.000000	-71636291148.972824 147082295978.882507 0.000000	-109606398170.678711 103717151330.195343 -0.000000	1372928057.886294 22327829463.426773 -0.000000	34997783581.485603 2087760614.509371 -0.000000	71750100237.802887 23975938268.715160 -0.000000	4747486724.369421 7603595583.796926 -0.000000	-25837315683.663986 49051266224.866112 -0.000000	-9287744807.592892 36290348529.451065 0.000000	91367549594.723770 69505473748.876022 0.000000	-5308814126.124723 3159774766.381078 0.000000	32612992937.334030 31238090397.292225 0.000000	5511512861.970302 11397316612.796890 -0.000000	17183846745.370865 5153543541.254619 -0.000000	60691565451.505150 59610727080.330658 0.000000	-28438586250.810303 24073936363.943954 -0.000000	72289371354.742157 33513418046.152565 -0.000000	5882213499.343090 14102409877.327560 -0.000000	-96833973330.755112 115732413821.619598 -0.000000	-39600112195.812675 3882681300.216136 0.000000	60770761853.926056 32826504591.463974 0.000000	-5797257571.669353 52772529829.900352 0.000000	53419069728.924911 11148447842.469324 -0.000000	6644058750.978061 11774841116.276342 -0.000000	-4938062506.571692 11396137006.950686 -0.000000	-1314026104.126838 46411401997.759918 0.000000	-31072405500.386200 26162760107.059982 0.000000	-29106344433.096924 11913152972.321287 -0.000000	-4440489002.018057 35120393753.814278 -0.000000	-104311452888.385406 36460537520.916428 -0.000000	-5814119015.910489 29033568848.297447 -0.000000	-83765162258.013748 48174209821.113098 0.000000	4255162111.377225 10543742002.055044 -0.000000	-6673680889.012732 21738665630.429714 -0.000000	-12244761681.697269 9858205280.802296 0.000000	326064543.577895 182370154.963302 -0.000000	-29824926727.252296 8599729397.721283 -0.000000	-2429076249.524493 57658856115.726021 0.000000	-61294065119.695984 46007903463.453629 0.000000	-25311255706.138203 39376597549.540588 -0.000000	-20090226589.216679 3598735277.000958 -0.000000	5869480365.049767 2277897329.621169 -0.000000	5731784908.933481 14927382280.819448 -0.000000	-16320790410.088943 32188816386.906010 -0.000000	-30755125447.802765 6380466964.879200 -0.000000	-9519159080.882311 64885452995.204216 0.000000	7081380060.597144 8703014215.625366 0.000000	1274554244.280688 13278972530.974907 -0.000000	35908181540.929543 4174326104.133067 0.000000	-28953005132.006290 45190622852.822212 -0.000000	-27494390681.528996 8640074134.603907 0.000000	9273562672.151251 31930604995.296955 -0.000000	-25621292942.801170 78083940397.108337 0.000000	-41939816976.041489 99089917509.382065 0.000000	-51664147794.761505 6159280204.783615 0.000000	-43608949622.912689 44911240383.519386 -0.000000	-4811018649.616896 59044319790.755814 -0.000000	-57281964092.512123 88713790301.757217 0.000000	10258411425.886103 21153843504.603352 0.000000	8107713210.475436 21875874531.014347 -0.000000	-2422460022.428686 6127528738.385060 -0.000000	-88529190384.325287 31000362092.980251 -0.000000	29801760328.296024 16469899250.900150 -0.000000	50896808952.478104 13859196890.691195 0.000000	41783293625.452187 13434599875.293913 -0.000000	20549470299.875813 41199525123.410370 0.000000	16508840518.255875 25359924777.940353 -0.000000	-4102980757.462709 15464978141.073811 -0.000000	-41330848089.435326 33464509501.978661 -0.000000	23125565897.837330 31092936527.526363 0.000000	3125473907.915369 15487782696.401064 -0.000000	2331168845.395789 1372106706.585193 -0.000000	-57962298086.881569 18816365230.497784 0.000000	1345527356.894175 70727202377.386948 -0.000000	-44481800965.523659 19026134207.020050 -0.000000	32164534636.128342 42161873910.457306 0.000000	-3015054854.225601 1288908540.591861 -0.000000	3079167607.542365 1293957821.824895 0.000000	22829548586.097237 32283483569.079498 0.000000	-11984341344.243343 46562452282.334305 0.000000	28552526520.979492 11943857386.487942 -0.000000	-14572153327.021898 10820113096.163300 -0.000000	17435290912.835449 32100646890.441284 -0.000000	-26858325069.953667 5764657356.400147 -0.000000	-37344007921.569839 76368351902.825089 0.000000	-19957141325.398666 38865519552.915604 -0.000000	7869439484.866481 6753430401.953096 -0.000000	-6403341405.293181 9552341013.974424 -0.000000	26585916652.500175 1696654280.138924 0.000000	3946416251.768181 15443749504.824921 -0.000000	50382021753.406189 37153894601.229965 -0.000000	-29070974382.891094 7244311453.084395 -0.000000	-40204294482.689575 73560068006.692154 -0.000000	19032207581.069824 28016994388.960934 -0.000000	32766132164.615643 61642653114.308273 0.000000	-5258815371.762309 13941121220.537336 0.000000	-9095655939.341644 14053349886.525955 -0.000000	36955760730.896942 34152220261.656425 -0.000000	-127332020.224956 516846056.989343 0.000000	-13348489151.747948 41327747789.659035 -0.000000	14114890661.275673 36130789662.284332 -0.000000	-35402294780.755211 14216188809.118725 -0.000000	74487927810.807419 60528580112.637222 0.000000	909540174.178853 516577846.558196 -0.000000	31559150470.915871 16880287958.269274 0.000000	-3272757941.309151 2568006124.914403 0.000000	-29707240884.725277 4846631718.720430 -0.000000	-77998288.891051 489525031.974942 -0.000000	30101123780.355228 32147223008.523346 -0.000000	-5103699845.453627 11934514983.337893 -0.000000	3015755598.184810 1312531588.959663 -0.000000	-23539106166.875965 9806145056.266602 0.000000	854613284.140845 3444566320.245554 -0.000000	-10341710295.220556 890745850.245281 -0.000000	22358093056.742805 20804020641.838184 0.000000	13399384128.532976 7260447987.281401 -0.000000	-9913974259.959099 3303878686.160925 0.000000	-20085520319.640678 15936796211.575941 -0.000000	1935714141.039065 33268065.489233 0.000000	13697520048.763414 27987917830.980644 0.000000	293558243.026791 172719188.137924 -0.000000	-7683247597.206491 1109898806.207432 0.000000	3396464027.079060 17055091090.720034 -0.000000	-21573434358.019855 149046794430.474792 0.000000	-9052669410.970093 34160866156.110359 0.000000	-7609073767.436544 9214363591.790213 -0.000000	-32840806516.432804 7289103329.643836 -0.000000	26893739237.728302 8349394577.636934 -0.000000	-6253193905.862864 8297569883.747863 0.000000	-3284102563.244731 3253736214.583073 -0.000000	49152903255.775833 25643433887.222321 0.000000	-47362759936.891136 15094802786.403656 0.000000	14291931092.942799 22054004299.323399 -0.000000	-15395545077.209839 29786542125.188011 -0.000000	-2142224811.601708 570930693.305262 0.000000	25755028205.748356 22653223217.041466 -0.000000	-51152031875.405869 77501285376.550125 -0.000000	-27733368688.845005 24492044854.780735 -0.000000	82939410588.681259 59200204148.314781 0.000000	9381468814.936449 47777653174.621025 -0.000000	-8667830698.847290 83199706796.214859 0.000000	-14900551925.078363 22791367934.550205 -0.000000	46472359117.049622 12713466800.836599 0.000000	10396468270.919601 2487880120.054411 -0.000000	-20538896185.385590 26780893254.071144 -0.000000	4114282096.178856 22852594663.036888 -0.000000	60480037203.629639 21476440576.770988 -0.000000	-18361871252.606133 170514197895.960297 0.000000	11335267769.879404 15210937005.494869 -0.000000	-1204654916.024625 51325864888.312386 -0.000000	34404065216.696838 10078829126.702717 -0.000000	100246341407.743851 3280401555.002340 -0.000000	-15742020799.074738 5810093042.413206 0.000000	8910453577.772104 11133347072.572933 0.000000	-12986578001.452911 49866719280.620209 -0.000000	25493286485.309284 64859759822.080338 0.000000	-6532790386.763285 3029364745.720331 -0.000000	13510483321.284081 6017552694.019773 0.000000	-22493604489.290302 131287005286.431091 0.000000	-17717078612.514366 10490625598.027319 0.000000	39349138300.310600 51497392312.844635 0.000000	37608417557.674728 35708073720.204834 -0.000000	6443513038.631612 6773842389.736007 -0.000000	-2707724118.467864 2805428861.737084 -0.000000	26053723068.672615 19310836705.355782 0.000000	7483498237.151368 1029645635.426266 -0.000000	-15933786108.482822 9517776013.813301 0.000000	-190087083.571068 86396415.778931 0.000000	4606169604.312704 3494957163.729729 0.000000	40201745529.718979 27486535910.582111 -0.000000	27738657290.214951 65444123431.642090 -0.000000	-19906314137.348923 24141308114.209190 -0.000000	76440189318.851700 87783013487.223755 0.000000	-33767988347.370243 8934643975.663904 0.000000	28690674938.035076 12156922784.981640 0.000000	28555774225.981480 54423334686.095558 -0.000000	-17801486537.517582 15310698124.337124 -0.000000	63759897667.112762 1959476838.165767 -0.000000	61870627069.508621 74732228027.978592 0.000000	1085459483.602288 59160042915.040710 -0.000000	-13878064107.893444 8318157044.514109 -0.000000	52078375479.722748 27148769905.706821 -0.000000	7893548141.162289 7268066988.075536 0.000000	-44835163317.337379 68681063840.826508 0.000000	-739107400.956897 32601622969.567799 -0.000000	2296289438.200440 1777715054.784965 -0.000000	49181157240.836098 23737436096.852486 0.000000	-5003099474.219602 5662343300.353975 -0.000000	1440342161.892601 4686664427.572615 -0.000000	-4718502527.643892 10989874152.901762 0.000000	41914281414.550781 17419676044.687035 -0.000000	-85771547767.895325 6916942496.482747 -0.000000	-9820115418.780882 13309279964.063496 -0.000000	44410240814.274452 11756449753.992558 -0.000000	-62310254557.685966 100206946749.995209 0.000000	10983210633.836382 48983763474.979988 -0.000000	-930254009.359047 611061762.894241 0.000000	57927320813.647285 80985248060.080582 0.000000	6955178513.328888 1838240421.633734 0.000000	45017491561.362686 47660665684.845810 -0.000000	-24431064003.447407 40221470779.416512 -0.000000	17392590209.343204 86865907615.185013 -0.000000	7026323708.260370 8424468834.694462 0.000000	-7261636196.449895 13750314169.152962 -0.000000	11883800590.767715 7532608015.745203 -0.000000	8327885104.045609 23370546200.160049 -0.000000	-29793552273.451363 35165783695.648262 -0.000000	4696446181.891838 62142785528.656448 0.000000	-32500231467.631733 34062609332.673859 0.000000	-27025379583.308826 22910996451.007420 -0.000000	50787841692.496346 49514240741.608162 -0.000000	48426768666.850693 3006405908.610550 0.000000	1788831332.892646 21555903656.828247 0.000000	-1567142277.620382 317594209.164463 0.000000	52858858447.369904 8942772704.307711 0.000000	-1035716737.105154 522389548.594010 0.000000	-3288078785.469882 12990324780.410337 -0.000000	36123302950.661316 29105653813.902611 -0.000000	-9809095008.298779 15685396237.206375 -0.000000	23359816277.932831 42480929644.503128 0.000000	37460257200.288040 28944856719.083420 -0.000000	-2140846161.265634 1592168871.004015 -0.000000	42823588.718291 171019970.323020 -0.000000	11561315584.250898 946563236.850726 0.000000	61770042981.773865 83420032306.573761 0.000000	63535395205.231804 48695544520.161263 -0.000000	34200557508.550022 71889317468.622284 0.000000	10394621093.917685 4223772284.804370 0.000000	-42602116149.873749 20825851712.539059 0.000000	-23407250872.451118 56384422552.635368 -0.000000	22610877985.182945 35192287461.021469 -0.000000	-11726665186.500282 559395748.752409 -0.000000	-37163934378.515839 63249755584.582047 0.000000	-14217655794.184443 27141626033.052876 -0.000000	41028787193.051643 41023883549.309204 -0.000000	7477476781.928871 14910055029.265139 -0.000000	-13834305597.221380 8235410654.162257 -0.000000	-2051625651.271902 8670578538.197042 -0.000000	69213044619.619812 19435188563.081051 0.000000	-12890846693.141272 131871437663.862320 -0.000000	-5247003838.527871 2584521564.714403 0.000000	-22158958613.325195 126778036556.703873 0.000000	851406057.577041 10866697185.673351 -0.000000	-97342608917.565445 65450030474.568222 -0.000000	2913484867.967627 1431126103.501595 -0.000000	-19787885373.490192 9003732139.819189 -0.000000	32928696097.404518 15999783539.935051 -0.000000	971820929.226591 15990496054.892017 -0.000000	45637447854.738937 11359764667.720186 -0.000000	-7711385174.581735 38393230375.799858 -0.000000	526119160.249702 1007952195.899264 -0.000000	90956049845.287247 62747485977.859093 0.000000	-48143907852.159676 22400315549.624706 -0.000000	76756178655.280594 160711228724.811401 -0.000000	47072837328.361687 3026034675.544575 -0.000000	-29281781042.515610 35761231787.763878 -0.000000	72304696048.915710 60176372682.921928 0.000000	-30170853126.798347 65483811904.936951 -0.000000	-18522343549.221531 9308903772.443438 -0.000000	67118751676.067116 111916590251.161774 -0.000000	-78722673283.065231 70235252624.075943 0.000000	-1941295789.982182 17915126866.863026 -0.000000	23569788586.483963 16040111158.855797 -0.000000	-66227187656.538536 43997723976.424416 -0.000000	18984125884.929771 16648287130.667206 -0.000000	-46999064194.649025 60588038133.176582 -0.000000	195094005.996972 2826274460.986416 -0.000000	-22285947105.056374 5353780125.353435 -0.000000	61467331877.784790 40244353788.155945 -0.000000	-51805952.535493 8811684.395749 -0.000000	174140896.481072 8899296373.768703 -0.000000	-3214965104.170126 14661654046.490402 -0.000000	2073467102.300816 14512626715.232368 0.000000	-25359312940.546322 7230639472.649703 -0.000000	-2420392257.842049 4985525580.937105 -0.000000	-32873554159.325504 11926036094.775696 -0.000000	3240557228.745356 3129506965.518086 -0.000000	20292738880.668102 85916023818.150604 0.000000	-47576483191.385895 12095716065.606686 0.000000	-7670948467.710877 5330181104.402003 -0.000000	-3303650013.731604 11567488776.167934 -0.000000	27151119713.562378 26097745080.749874 0.000000	-6336563003.281531 1849640588.180241 -0.000000	20927751523.418201 20791325503.056973 -0.000000	-3339941464.451035 15463414597.495621 -0.000000	11651804678.457907 9494016417.463501 -0.000000	-5742079552.378667 4602543146.365367 -0.000000	95968405380.516586 138135097526.735901 0.000000	-3181382337.096976 4185075318.940793 0.000000	-31595546391.295620 12531621931.557247 0.000000	-54396496892.830978 64309517381.086220 -0.000000	-55792609851.634232 84910215439.270477 0.000000	2799473115.212205 15112903436.375290 -0.000000	-87133530363.042099 56961020763.964722 -0.000000	-22485087182.326782 3116224382.672678 0.000000	-35171051967.715523 60580521650.809952 -0.000000	-11150341157.750664 33513762726.166271 -0.000000	1661063460.357112 1722590253.271641 -0.000000	403459420.839380 1849505202.949143 0.000000	-63725156046.339302 84330270288.133804 -0.000000	-22778446796.046631 18587693820.366013 -0.000000	25558841066.008633 8609677308.849075 -0.000000	-1766087513.986025 101468679.614266 0.000000	17624347775.177189 27579616848.310402 -0.000000	-40583094053.507629 32045851167.415630 -0.000000	-31618788898.725147 48014084273.032379 0.000000	-25764600997.355438 32073118580.005142 -0.000000	-8803470204.137943 42814285143.686043 0.000000	-3011882473.854638 2496459085.121819 0.000000	-7788512895.054910 14216299338.560770 -0.000000	-8416672047.538363 236710042.428253 -0.000000	-247574574.054188 2716742687.536287 -0.000000	27171433877.272884 25217019670.313686 -0.000000	-29586582389.903893 19870675441.097340 -0.000000	-59275882460.495041 17970346644.669289 0.000000	-78867196845.358551 67178309458.898010 -0.000000	12097884323.092091 14572741502.719475 -0.000000	-47495013126.955368 16863680739.101345 0.000000	-53380653665.674507 87151281196.694473 -0.000000	1434039287.267829 16778829855.582075 -0.000000	-5072276320.776495 3560171614.640235 -0.000000	14894588283.321579 43416140315.213875 -0.000000	24055966863.764687 5559366712.985888 -0.000000	4537165183.217994 16061451743.232752 -0.000000	-37279268504.106956 16157135878.573872 0.000000	60882052814.791679 2149894196.679485 0.000000	12743564029.533138 3944258590.050750 -0.000000	-17895811184.876446 29717604917.544262 -0.000000	35029039037.595016 44190480016.657944 0.000000	-26746107837.999989 19055479934.078693 0.000000	-19229064697.997112 24072789012.497936 -0.000000	1513694171.509260 2402983552.823218 -0.000000	-1329444034.635465 10899219171.976137 -0.000000	-8193084437.691187 21405601308.929924 -0.000000	18889467820.915630 19306167549.324570 -0.000000	27041728661.619724 11839565489.971935 0.000000	1647631083.547525 1646071934.190000 0.000000	-1588893721.571734 989848847.829771 0.000000	17052265170.668966 30106149746.342358 -0.000000	-3250201308.673739 5528359653.016030 -0.000000	-13931084794.216602 31179277997.675747 -0.000000	-22260787022.300812 20600151969.045368 0.000000	6089498324.867497 5976038332.493856 0.000000	34320951469.105530 21426243027.075539 -0.000000	-12856036984.756817 24772775642.760841 -0.000000	11367669283.286798 32213067147.755711 -0.000000	-675308738.724944 1265035219.826596 -0.000000	2473386998.242532 4326963456.851097 -0.000000	-54697249629.764038 39825701286.220665 0.000000	-20875905202.685917 71931958001.770462 -0.000000	2188150588.128852 17019917655.607836 0.000000	18684547797.426266 27660659312.563274 0.000000	1518637078.889917 61281185868.279518 -0.000000	6886156920.233205 26933637757.828491 0.000000	-2678241465.677897 24403473577.577503 -0.000000	-15683006613.008497 5709588739.684474 0.000000	19604338654.553967 2630267271.126867 -0.000000	2096345968.245977 425034800.244444 0.000000	569368291.348526 5155655995.972468 -0.000000	1178807507.962007 7713444228.045756 0.000000	-39450160820.057861 43898123095.088837 -0.000000	-4217286618.595644 1656639543.357008 -0.000000	10229603939.136383 3238534120.308968 -0.000000	5525396919.575146 10347119835.062773 0.000000	-2698165778.503740 2276137392.977696 -0.000000	-17166038239.334211 101762307025.566757 -0.000000	46321008989.841301 94230377937.069946 0.000000	-34578866533.813614 6845764328.159758 0.000000	-27520108689.937531 30902233215.319973 -0.000000	-8579360573.441059 5253396249.178728 -0.000000	-2850842637.795660 8932081070.754244 -0.000000	-4259938544.942308 3684066719.443991 -0.000000	1465590074.236051 896420511.981272 -0.000000	-63383708958.497223 82957009581.255524 0.000000	-18999563210.872452 128832434.045613 -0.000000	-14773825449.739111 16274350419.621698 -0.000000	34351734244.908184 60830731989.408142 -0.000000	10387508343.754015 12405324276.633831 0.000000	8252940762.583698 11296418404.489290 -0.000000	146830912.393334 85479197.268932 -0.000000	-158988601.074974 213506591.767615 0.000000	-73625729432.877472 107747398880.328979 -0.000000	19464944712.220638 25638097186.612621 -0.000000	-63339726366.065613 1140861022.180821 0.000000	3736528360.537938 49599455196.714569 -0.000000	-208105679.684604 740825401.888332 -0.000000	34462457481.542503 21444979000.523067 0.000000	10838979988.366941 25045171447.043060 -0.000000	-19899532288.241863 10306149363.812830 0.000000	-5005685535.680041 1359441546.328350 -0.000000	78836946902.505676 77569941363.207825 0.000000	-10054890749.588449 37609095602.179008 -0.000000	-5097259917.361465 858197142.188310 -0.000000	-515206872.703862 179254367.641925 0.000000	-736411461.688777 3503440902.754519 -0.000000	12699178437.630831 28400052236.029640 0.000000	5981932634.719522 5406334336.098495 -0.000000	536211930.262507 26254524881.738846 -0.000000	29746976243.346443 25267732474.002930 -0.000000	21872690687.415344 21485367162.156063 0.000000	-2864265612.840652 11354297974.736200 -0.000000	-351304699.662461 2803071531.016479 -0.000000	2257620157.606426 1727946823.246923 -0.000000	-42670411361.892822 28817635125.159866 -0.000000	-22499085663.620926 11980452591.661442 -0.000000	2480847430.777280 940109049.635078 0.000000	347478985.309901 21897243167.914265 -0.000000	23470027931.877289 12792602896.865824 -0.000000	7064923326.220600 3933224427.187451 0.000000	-7886313537.581090 15543839898.395933 0.000000	658224242.733512 22200244161.861774 0.000000	381125388.527819 109342069.760543 -0.000000	-454406580.581384 284649081.369208 0.000000	31941881767.386341 17076433736.536205 -0.000000	-16462495836.084480 11233482578.742050 0.000000	44863832276.382599 30251093426.132725 0.000000	-298405282.702699 180791308.571851 0.000000	-24210356268.491875 36031746409.974304 0.000000	-2812306203.124381 13449109034.425594 -0.000000	3874037534.324647 5244257162.138772 -0.000000	-17490340911.989761 5713840633.267360 -0.000000	12798133919.683817 5965079058.473450 0.000000	-1031338915.602170 2074808193.825284 -0.000000	21173451551.736206 36780953622.578629 -0.000000	-7663077709.468835 3505933401.911947 -0.000000	-188862716.833298 7202373.938197 0.000000	-2040776961.344819 2296173641.962691 0.000000	2265698356.898623 19156479607.577873 0.000000	11109600724.489372 91508082548.714920 0.000000	44261225857.831123 38404477415.557434 -0.000000	29158978609.706879 41585791641.360596 0.000000	-54341997849.622406 68439457695.920074 -0.000000	6308696194.694963 10570546453.378902 -0.000000	-65162713238.848427 37594862725.532158 0.000000	19474399216.079746 5015962038.607608 -0.000000	5907884138.384209 12769565576.300091 0.000000	-5544498756.403670 6645867779.322589 0.000000	28211262424.298721 19066388552.301952 -0.000000	-5802486569.002926 20348875880.906559 0.000000	4538578164.025125 30312106628.359474 -0.000000	-42694113368.985260 84047876734.848190 0.000000	-22666393205.547749 30736146782.762131 -0.000000	22343159780.642178 14763184311.546535 -0.000000	-4220821995.925864 1092822802.977868 0.000000	3929282055.351570 10199296178.143476 0.000000	1190484995.634101 450859706.749311 0.000000	-5209153390.373756 10173967807.869141 0.000000	38041613678.763550 1182889984.618108 0.000000	4191810938.878140 10547569438.155010 0.000000	-34800419276.362885 26497517208.020645 0.000000	7580612988.974176 19841166969.495419 0.000000	5903504415.781245 76495835.516318 -0.000000	7049027767.261585 9250303105.108240 0.000000	-6253438292.350139 11760820954.498415 0.000000	-733930524.507440 312779195.593688 0.000000	-4189559996.577297 2417468931.564425 0.000000	7857575878.959050 7054934535.940141 0.000000	4889894084.156954 32504243351.379936 0.000000	35150537984.997574 12978465986.596512 0.000000	-1201768890.353197 647283967.188470 -0.000000	-12187885116.376581 734545022.450088 -0.000000	-3381221463.109764 270195146.895478 0.000000	-5611197634.385386 11248082552.500574 -0.000000	8270619446.296122 3490470308.504061 0.000000	-2707977936.848104 40740100091.844933 0.000000	2003216343.346471 732675427.286595 -0.000000	27072667988.067276 42072218244.441040 0.000000	-398433441.055537 232086197.453971 -0.000000	6247482395.092865 27858059223.912292 -0.000000	14977157150.866753 8334528401.669818 -0.000000	833241401.619925 125904950.762325 0.000000	-11209203793.495201 3024210693.039225 -0.000000	16770671600.624365 7323562935.075478 0.000000	-1644705179.783094 2274685444.538356 -0.000000	994056178.166414 580218333.603120 -0.000000	-28891272165.893074 9522121225.666681 0.000000	9446853904.258698 5517295652.001277 0.000000	-1890884017.442713 2343219714.960529 -0.000000	-12247433552.848028 17986049354.112549 0.000000	12642687040.947910 15561650438.968475 0.000000	-13062618269.998241 10926522957.112576 0.000000	-11047025754.277983 16612216046.762663 -0.000000	28067934361.663513 24808116830.371239 0.000000	1014298106.115308 2630201580.094366 -0.000000	-1084099359.879466 20551426436.573906 0.000000	11132599002.881289 5596145051.823316 0.000000	453630339.466439 118687510.360457 -0.000000	-9276686529.635252 25025970251.538376 -0.000000	-14553096165.653946 5673781101.983792 -0.000000	34006448899.697437 37752053364.449821 0.000000	526465741.411232 9534476116.867687 0.000000	-6296301217.113534 2868649853.742112 0.000000	694075606.345904 97569783.619553 0.000000	9197874893.862553 4292038843.819211 -0.000000	-2569284084.480762 2626224532.143787 -0.000000	19151722788.865253 4167914852.592281 0.000000	-5172484649.757839 17814261212.523506 0.000000	-13491973534.426931 2651254447.676275 0.000000	9810263221.582981 4067325352.520537 0.000000	-18706806860.771519 14223409474.306494 -0.000000	3571939215.055516 9094706770.641293 -0.000000	-14604509451.028265 3148317597.515544 0.000000	361645137.877755 182534391.963212 -0.000000	4294090977.687528 15038962154.196100 -0.000000	-15081076825.442738 23544059161.178940 -0.000000	-65305790779.615387 16137118412.191881 -0.000000	-2406741073.306722 4665843697.131143 -0.000000	6223148607.582351 2375151028.449739 -0.000000	-19149289531.770016 68493496847.718636 0.000000	-9777356190.987371 22845695566.442291 -0.000000	36974304913.051071 3051356451.928759 0.000000	28418854587.106304 55889701233.383842 0.000000	-17786517172.271809 10292827934.075260 -0.000000	3499207629.679981 22155370589.642353 -0.000000	10871823436.638897 6924994957.582947 -0.000000	11561340648.575027 7181051622.680811 0.000000	-6767371422.515346 1105048881.146265 -0.000000	-42269469825.492226 83343832529.298798 0.000000	-46364661462.293869 36487232938.205681 -0.000000	-909327413.434085 17826823150.948051 -0.000000	45965099507.943504 671213248.417991 0.000000	58494498426.299339 15911569811.167725 -0.000000	-16042292459.055681 39356001482.088165 0.000000	7794423322.239183 9123977480.996645 0.000000	2370713527.389232 1077280544.265841 -0.000000	-5702824746.951363 13722149609.502121 0.000000	5846426898.137621 50734250684.569427 -0.000000	-10176898399.542706 11276827522.197241 -0.000000	2699998147.859536 1881672394.853864 -0.000000	22926326594.835896 39070110684.088425 0.000000	-26025857029.026924 12379303934.577648 0.000000	-9030424429.502266 2781193201.316418 -0.000000	1884015856.832960 800433164.731428 -0.000000	-2152207947.167480 36556701177.104988 -0.000000	13937732340.972103 12210672266.153912 0.000000	-12489730085.823236 3533700947.064121 0.000000	15005112821.330715 3596037989.111989 0.000000	-22343078671.268600 13217731858.738176 -0.000000	2149463817.632564 8153430523.202392 -0.000000	-1994323307.710672 327285111.671711 0.000000	-49901430789.071640 25959770900.443119 0.000000	8357792139.520469 20566655307.865932 -0.000000	2029965857.518388 1183950428.569388 -0.000000	-793060679.407373 973956240.689444 0.000000	-2622318756.710570 8278604975.368975 0.000000	10979986746.379347 14364062484.176748 0.000000	47069168756.722420 50398164178.382385 0.000000	-15247093672.288555 24973460604.178555 0.000000	4296982465.303326 32537491324.514797 0.000000	-16550925527.317211 3656414116.207236 -0.000000	9547806909.630186 60722453.985932 0.000000	-2542678976.124343 4916401999.875037 -0.000000	-14423620286.971519 6714706085.694568 0.000000	-11030054475.807993 3811403712.637656 -0.000000	3902946986.122987 6257605758.076606 -0.000000	1446941962.602605 259343318.517600 -0.000000	-5078415860.277991 8684082700.554905 -0.000000	-2004917736.233704 417862263.114916 -0.000000	20639507057.034245 18950755880.508663 -0.000000	18105744295.313484 34044905984.783146 0.000000	-7345653539.196713 390012925.538115 0.000000	12615680866.749800 9412342761.944181 0.000000	3043785249.076543 34174719769.992317 0.000000	12031701696.259199 12024069789.062000 -0.000000	5980832019.465111 3702270162.338357 -0.000000	-1572367284.191472 255558454.378516 0.000000	3068373301.669413 17553845313.252659 -0.000000	-7009024500.257565 9826417228.816877 0.000000	-44694176916.462364 94017235386.709610 -0.000000	2310054967.022591 5325567673.904282 -0.000000	5019405400.807388 23959882500.178204 0.000000	296353773.133937 16827390601.075062 0.000000	-25796219047.421337 6888039115.557973 0.000000	8204084251.791093 4313625225.899137 0.000000	-296910808.039516 3119903840.195931 -0.000000	1385749853.291772 917573617.810490 -0.000000	-1225459882.090547 2454036894.055716 -0.000000	5446726799.457044 8237037827.524920 -0.000000	3443821278.056639 6532864609.404081 0.000000	6104801471.387714 32237051648.606800 0.000000	-12515371173.497112 13351235313.243397 -0.000000	24021647769.396252 11814962481.661127 -0.000000	4906407476.887527 15082001381.472626 0.000000	1003362483.974877 1504037142.410973 -0.000000	-22325587715.797619 12588289524.165953 -0.000000	-18312739881.715725 38440863127.986839 0.000000	1009741675.927827 144297428.578833 -0.000000	8829108735.291292 89515637398.950607 0.000000	-10492039360.542171 2917055031.505892 0.000000	-4389617762.253063 14646342748.321590 0.000000	-1876945475.041461 977001373.449077 -0.000000	1058050374.309694 25267857633.868031 -0.000000	-33284056277.719410 14735385902.703979 0.000000	-2906289451.404410 2281777076.021112 -0.000000	4123984791.520093 15045024075.730520 -0.000000	-969163393.408576 2264308132.051991 -0.000000	-16362788099.222054 79299432946.396011 0.000000	12796383671.991701 2115056717.722763 0.000000	-858914781.162889 214113144.621963 0.000000	-11468210333.515833 15248821323.179068 0.000000	2928040753.899016 1530683946.315006 0.000000	-3404079477.709775 19677732158.697433 0.000000	-4147548186.539232 14123605914.933167 0.000000	24070264065.786385 34881037653.764160 0.000000	-6816341954.639867 8390088340.262954 -0.000000	18615945522.664192 7392392866.805643 0.000000	4819184830.206797 6196608554.064447 -0.000000	50566814367.901810 11643426672.683578 -0.000000	-5864355048.412794 19058146286.198860 -0.000000	3278666659.828775 23118668753.492863 0.000000	-22855811396.940105 5879786168.518608 -0.000000	-1081156776.966959 23425063500.951675 -0.000000	16222424957.248394 22069096685.330021 0.000000	895949677.137595 1879361108.471983 -0.000000	17556668365.418926 8347274759.267145 -0.000000	-1056107315.415396 3675270512.265197 -0.000000	28338638632.302120 14927908777.447485 0.000000	-3576280860.742860 3391939888.188513 0.000000	-440688761.536427 2566439053.524453 -0.000000	-28392962492.109188 33573807959.802242 0.000000	28587788751.109516 7359941190.113968 0.000000	-2797270636.435562 3538982620.264670 0.000000	-933899143.046881 783449673.314312 -0.000000	-11621984050.722170 17056936616.073811 -0.000000	32037692568.575466 1195765395.654416 0.000000	2316254404.784657 2475290999.522213 0.000000	-312946059.399096 2678782141.926920 -0.000000	-14519532748.405355 11220769526.551395 0.000000	1100567682.476969 1147541187.185573 0.000000	42160319403.722534 66158219200.459877 -0.000000	-7818565715.794945 4073313902.438146 -0.000000	11380782499.920460 20434526901.533695 0.000000	38273049039.015694 10510462276.089457 -0.000000	-6569372417.645190 8697893195.382580 0.000000	10756160328.453415 3983204110.839028 0.000000	-1445295355.912875 7632361714.055268 -0.000000	13652076493.616905 6262683722.848592 -0.000000	458649479.059461 2407704644.543945 0.000000	-4786764138.208857 176037169.818264 -0.000000	30174164231.658295 50514012045.381157 -0.000000	-900548572.289069 922243606.076030 -0.000000	1904718370.080643 1247708672.197696 0.000000	-2867401219.359305 4700430432.121804 -0.000000	-6875864014.710057 22649313324.054996 0.000000	-1226153909.875729 15742320241.606588 -0.000000	10581878977.192066 17124273336.759741 -0.000000	-14818142232.959219 6497311810.571383 -0.000000	-2386082663.100803 1418726726.628416 -0.000000	8123405344.784874 18056862562.591557 0.000000	-7882827301.094495 951122358.647547 0.000000	-8073944140.406724 10844437561.145897 0.000000	7140845561.713796 21104661207.035580 -0.000000	6323665037.863213 2878535129.003372 0.000000	-6810215380.183359 13252583388.740250 -0.000000	2956597770.342269 14052335379.729845 0.000000	2766076003.376422 1640572931.492263 -0.000000	-30418177000.632706 848179201.690000 0.000000	13469643697.601049 15980572538.544302 -0.000000	10007634729.284294 217593945.740374 -0.000000	709707000.351665 1042322873.994350 0.000000	-17617342741.779739 15552467158.578438 0.000000	-1734854950.887215 146148210.328145 -0.000000	-8307497215.502065 625340718.668989 0.000000	
VECTORS shear_force float
3912000000.000000 -1599000000.000000 0.000000	-290900000.000000 214300000.000000 0.000000	-168400000.000000 124200000.000000 0.000000	-166000000.000000 -123000000.000000 0.000000	-6486000000.000000 4823000000.000000 0.000000	168400000.000000 124200000.000000 0.000000	160900000.000000 -71140000.000000 0.000000	4225000000.000000 3233000000.000000 0.000000	3785000000.000000 1835000000.000000 0.000000	16620000000.000000 1312000000.000000 0.000000	411000000.000000 -125400000.000000 0.000000	847700000.000000 -627100000.000000 0.000000	-7546000000.000000 3470000000.000000 0.000000	-802400000.000000 -593800000.000000 0.000000	-75140000.000000 55910000.000000 0.000000	-9845000000.000000 7579000000.000000 0.000000	6360000000.000000 5052000000.000000 0.000000	13370000000.000000 10630000000.000000 0.000000	-6460000000.000000 -1862000000.000000 0.000000	18780000000.000000 -13730000000.000000 0.000000	5680000000.000000 4783000000.000000 0.000000	-5188000000.000000 -3574000000.000000 0.000000	22190000000.000000 -16340000000.000000 0.000000	22330000000.000000 -8741000000.000000 0.000000	1151000000.000000 935500000.000000 0.000000	11440000000.000000 1570000000.000000 0.000000	-4478000000.000000 1004000000.000000 0.000000	40700000000.000000 11920000000.000000 0.000000	-59700000000.000000 23920000000.000000 0.000000	-236000000.000000 173900000.000000 0.000000	-1137000000.000000 -621300000.000000 0.000000	236000000.000000 173900000.000000 0.000000	-1574000000.000000 1216000000.000000 0.000000	-35110000000.000000 16140000000.000000 0.000000	3460000000.000000 2668000000.000000 0.000000	-14610000000.000000 -7077000000.000000 0.000000	-7111000000.000000 5428000000.000000 0.000000	17090000000.000000 14390000000.000000 0.000000	17640000000.000000 -12790000000.000000 0.000000	2396000000.000000 1968000000.000000 0.000000	-4702000000.000000 1828000000.000000 0.000000	9937000000.000000 -6110000000.000000 0.000000	-7883000000.000000 3014000000.000000 0.000000	11500000000.000000 1420000000.000000 0.000000	-13910000000.000000 6498000000.000000 0.000000	-38330000000.000000 27920000000.000000 0.000000	27640000000.000000 13570000000.000000 0.000000	-4240000000.000000 -3595000000.000000 0.000000	521500000.000000 -384900000.000000 0.000000	-521500000.000000 -384900000.000000 0.000000	-61990000000.000000 28740000000.000000 0.000000	30480000000.000000 15650000000.000000 0.000000	-6882000000.000000 5477000000.000000 0.000000	12110000000.000000 -9423000000.000000 0.000000	-20860000000.000000 -15910000000.000000 0.000000	18600000000.000000 14560000000.000000 0.000000	-17010000000.000000 13910000000.000000 0.000000	9980000000.000000 -4670000000.000000 0.000000	20650000000.000000 15870000000.000000 0.000000	29820000000.000000 14640000000.000000 0.000000	255800000.000000 -115100000.000000 0.000000	49480000.000000 -36490000.000000 0.000000	5713000000.000000 2818000000.000000 0.000000	-49490000.000000 -36480000.000000 0.000000	4109000000.000000 -3329000000.000000 0.000000	28120000000.000000 21030000000.000000 0.000000	-15360000000.000000 7470000000.000000 0.000000	18470000000.000000 8478000000.000000 0.000000	-63940000000.000000 -4341000000.000000 0.000000	24580000000.000000 -11780000000.000000 0.000000	15870000000.000000 7367000000.000000 0.000000	-29850000000.000000 13460000000.000000 0.000000	18720000000.000000 9618000000.000000 0.000000	12880000000.000000 -11480000000.000000 0.000000	-54650000000.000000 -41320000000.000000 0.000000	-5043000000.000000 750400000.000000 0.000000	801900000.000000 -441600000.000000 0.000000	-30200000000.000000 -12060000000.000000 0.000000	5176000000.000000 -58010000.000000 0.000000	671400000.000000 -136800000.000000 0.000000	7806000000.000000 -1231000000.000000 0.000000	-17480000000.000000 9370000000.000000 0.000000	-10910000000.000000 -3024000000.000000 0.000000	-26410000000.000000 -17140000000.000000 0.000000	-49170000000.000000 21680000000.000000 0.000000	4452000000.000000 2238000000.000000 0.000000	-61910000000.000000 -6587000000.000000 0.000000	-28850000000.000000 -5284000000.000000 0.000000	-6462000000.000000 5380000000.000000 0.000000	3250000000.000000 2439000000.000000 0.000000	-8987000000.000000 -1341000000.000000 0.000000	-18780000000.000000 9087000000.000000 0.000000	31490000000.000000 14350000000.000000 0.000000	553100000.000000 -422600000.000000 0.000000	-7319000000.000000 -5344000000.000000 0.000000	-5864000000.000000 -698100000.000000 0.000000	-34260000000.000000 8840000000.000000 0.000000	-44780000000.000000 -11710000000.000000 0.000000	-23660000000.000000 2494000000.000000 0.000000	-21570000000.000000 -9173000000.000000 0.000000	10430000000.000000 7459000000.000000 0.000000	-2149000000.000000 1030000000.000000 0.000000	-14730000000.000000 -6556000000.000000 0.000000	-634000000.000000 480600000.000000 0.000000	-4792000000.000000 -3511000000.000000 0.000000	-730100000.000000 339400000.000000 0.000000	-262100000.000000 -118700000.000000 0.000000	-5589000000.000000 13920000000.000000 -0.000000	7087000000.000000 9798000000.000000 -0.000000	2893000000.000000 -301500000.000000 0.000000	-32050000000.000000 4476000000.000000 -0.000000	20550000000.000000 12910000000.000000 0.000000	2237000000.000000 -7781000000.000000 0.000000	15390000000.000000 1233000000.000000 -0.000000	431300000.000000 2106000000.000000 0.000000	-2161000000.000000 3190000000.000000 0.000000	-14020000000.000000 -4251000000.000000 0.000000	375600000.000000 826800000.000000 -0.000000	62010000000.000000 -3531000000.000000 0.000000	-1134000000.000000 -1167000000.000000 0.000000	232200000.000000 -3596000000.000000 -0.000000	6504000000.000000 -14740000000.000000 -0.000000	10420000000.000000 -521300000.000000 -0.000000	16360000000.000000 22070000000.000000 -0.000000	3383000000.000000 1737000000.000000 0.000000	-5813000000.000000 -13160000000.000000 0.000000	-9704000000.000000 42340000000.000000 0.000000	3873000000.000000 -13430000000.000000 -0.000000	60890000.000000 46670000.000000 -0.000000	6698000000.000000 10570000000.000000 0.000000	9008000000.000000 -4523000000.000000 -0.000000	14840000.000000 483300000.000000 -0.000000	820700000.000000 -1117000000.000000 0.000000	-38500000000.000000 1173000000.000000 0.000000	22970000000.000000 8396000000.000000 -0.000000	30100000000.000000 12420000000.000000 0.000000	-13550000000.000000 16350000000.000000 -0.000000	172500000.000000 1161000000.000000 0.000000	-4374000000.000000 7152000000.000000 0.000000	-14200000000.000000 -24790000000.000000 -0.000000	195400000.000000 750800000.000000 0.000000	2698000000.000000 -4260000000.000000 -0.000000	-454700000.000000 -248800000.000000 0.000000	2744000000.000000 -8537000000.000000 0.000000	-9311000000.000000 -10810000000.000000 -0.000000	-3081000000.000000 2186000000.000000 -0.000000	-2670000000.000000 -7060000000.000000 0.000000	-429200000.000000 69660000.000000 0.000000	4540000000.000000 230500000.000000 -0.000000	3633000000.000000 -7104000000.000000 0.000000	-264500000.000000 -716500000.000000 -0.000000	-388600000.000000 126500000.000000 0.000000	595600000.000000 605300000.000000 0.000000	-15310000000.000000 32870000000.000000 -0.000000	736500000.000000 -11810000000.000000 0.000000	-3856000000.000000 35410000000.000000 -0.000000	-630500000.000000 2145000000.000000 0.000000	-21470000000.000000 1216000000.000000 -0.000000	868000000.000000 2183000000.000000 -0.000000	30930000000.000000 -14920000000.000000 0.000000	19590000000.000000 11400000000.000000 0.000000	-3641000000.000000 -7202000000.000000 0.000000	66560000000.000000 -2494000000.000000 0.000000	-7023000000.000000 23450000000.000000 0.000000	189000000.000000 316900000.000000 0.000000	28160000000.000000 -10930000000.000000 -0.000000	4959000000.000000 942800000.000000 0.000000	-29450000000.000000 30760000000.000000 0.000000	-1593000000.000000 -1478000000.000000 0.000000	12520000.000000 1306000000.000000 0.000000	-2555000000.000000 467100000.000000 0.000000	-22160000000.000000 34640000000.000000 0.000000	-292900000.000000 6830000000.000000 -0.000000	-2843000000.000000 392400000.000000 0.000000	-1074000000.000000 1542000000.000000 0.000000	7968000000.000000 -2297000000.000000 -0.000000	11430000000.000000 8277000000.000000 -0.000000	7525000000.000000 6876000000.000000 0.000000	-16220000000.000000 28280000000.000000 0.000000	8824000000.000000 6024000000.000000 0.000000	6828000000.000000 20850000000.000000 0.000000	-21920000000.000000 32590000000.000000 0.000000	13480000000.000000 8283000000.000000 -0.000000	4839000000.000000 -3137000000.000000 0.000000	-12740000000.000000 -3467000000.000000 0.000000	-7009000000.000000 3915000000.000000 -0.000000	15750000000.000000 -3036000000.000000 0.000000	-2194000000.000000 -15230000000.000000 0.000000	15650000000.000000 8378000000.000000 -0.000000	-3212000000.000000 9869000000.000000 0.000000	29610000000.000000 -14560000000.000000 -0.000000	-15670000000.000000 -10880000000.000000 -0.000000	24960000.000000 -396800000.000000 0.000000	-7616000000.000000 3281000000.000000 0.000000	-5159000000.000000 -3106000000.000000 0.000000	-644400000.000000 1433000000.000000 0.000000	6910000000.000000 -2080000000.000000 0.000000	-11090000000.000000 5035000000.000000 -0.000000	5524000000.000000 3488000000.000000 -0.000000	1535000000.000000 -1535000000.000000 -0.000000	-9285000000.000000 -9276000000.000000 -0.000000	106700000.000000 10950000000.000000 0.000000	-15980000.000000 23790000.000000 -0.000000	24170000000.000000 1380000000.000000 -0.000000	2278000000.000000 9921000000.000000 -0.000000	-52290000000.000000 -5091000000.000000 0.000000	9730000000.000000 -14270000000.000000 0.000000	-6996000000.000000 776900000.000000 0.000000	-8352000000.000000 -7811000000.000000 0.000000	8471000000.000000 3698000000.000000 -0.000000	-10110000000.000000 22980000000.000000 0.000000	-1319000000.000000 2210000000.000000 -0.000000	23960000000.000000 -4232000000.000000 -0.000000	50330000.000000 -3770000000.000000 0.000000	-24160000000.000000 8231000000.000000 0.000000	77050000.000000 -96570000.000000 0.000000	-24460000000.000000 -5392000000.000000 0.000000	9776000000.000000 -6107000000.000000 -0.000000	-1002000000.000000 -1763000000.000000 0.000000	5317000000.000000 14480000000.000000 -0.000000	37460000000.000000 56270000000.000000 -0.000000	-33780000000.000000 -3189000000.000000 0.000000	-6101000000.000000 33120000000.000000 -0.000000	-40970000000.000000 26610000000.000000 -0.000000	6995000000.000000 9789000000.000000 -0.000000	1826000000.000000 -29670000000.000000 -0.000000	-7466000000.000000 4525000000.000000 0.000000	-4954000000.000000 -12620000000.000000 0.000000	-25990000000.000000 20740000000.000000 -0.000000	13110000000.000000 28530000000.000000 -0.000000	-2617000000.000000 -1720000000.000000 -0.000000	2849000000.000000 -8337000000.000000 -0.000000	39750000000.000000 25150000000.000000 0.000000	196500000.000000 573600000.000000 0.000000	-24820000000.000000 40720000000.000000 0.000000	-3884000000.000000 -12250000000.000000 -0.000000	-5867000000.000000 9379000000.000000 -0.000000	26580000000.000000 -27210000000.000000 -0.000000	-24020000000.000000 -28650000000.000000 -0.000000	-12800000000.000000 -3049000000.000000 0.000000	8540000000.000000 -9137000000.000000 0.000000	18390000000.000000 -9176000000.000000 -0.000000	8657000000.000000 4920000000.000000 -0.000000	6312000000.000000 16790000000.000000 -0.000000	-24390000000.000000 15770000000.000000 0.000000	-19660000000.000000 -2336000000.000000 0.000000	1883000000.000000 1642000000.000000 -0.000000	-122700000.000000 2646000000.000000 -0.000000	9898000000.000000 9592000000.000000 0.000000	-5824000000.000000 9052000000.000000 0.000000	-28940000.000000 364200000.000000 0.000000	-15130000000.000000 -15650000000.000000 -0.000000	22070000000.000000 12270000000.000000 0.000000	4493000000.000000 -3365000000.000000 0.000000	8844000000.000000 13380000000.000000 0.000000	-7263000000.000000 14230000000.000000 -0.000000	4283000000.000000 608500000.000000 0.000000	-6446000000.000000 -33860000000.000000 -0.000000	24550000000.000000 650100000.000000 -0.000000	4182000000.000000 -3606000000.000000 0.000000	4029000000.000000 3786000000.000000 0.000000	3288000000.000000 -15900000000.000000 0.000000	-8797000000.000000 4893000000.000000 0.000000	888600000.000000 -4955000000.000000 -0.000000	-2322000000.000000 -2867000000.000000 0.000000	3636000000.000000 -28600000000.000000 -0.000000	-1500000000.000000 67090000.000000 -0.000000	-12290000000.000000 895900000.000000 0.000000	-1342000000.000000 1578000000.000000 -0.000000	36810000000.000000 53140000000.000000 -0.000000	-62750000000.000000 19760000000.000000 0.000000	2136000000.000000 2400000000.000000 0.000000	8830000000.000000 8409000000.000000 0.000000	1613000000.000000 -26160000000.000000 -0.000000	-12320000000.000000 -949200000.000000 0.000000	2413000000.000000 -1628000000.000000 0.000000	11320000000.000000 31330000000.000000 -0.000000	7050000000.000000 1001000000.000000 0.000000	9182000000.000000 4120000000.000000 -0.000000	6078000000.000000 2149000000.000000 0.000000	15550000000.000000 -8974000000.000000 0.000000	6126000000.000000 1379000000.000000 -0.000000	-3890000000.000000 1865000000.000000 0.000000	-1529000000.000000 -7424000000.000000 -0.000000	-4602000000.000000 4998000000.000000 0.000000	-8361000000.000000 -8652000000.000000 0.000000	-610500000.000000 5376000000.000000 -0.000000	2154000000.000000 29260000000.000000 -0.000000	268800000.000000 65180000.000000 0.000000	4470000000.000000 8056000000.000000 0.000000	-19060000000.000000 28820000000.000000 -0.000000	693400000.000000 9105000000.000000 -0.000000	14300000000.000000 11460000000.000000 -0.000000	-2001000000.000000 1325000000.000000 0.000000	3132000000.000000 -99310000.000000 -0.000000	10070000000.000000 -11340000000.000000 -0.000000	-5511000000.000000 9541000000.000000 0.000000	-7990000000.000000 -14340000000.000000 -0.000000	-7949000000.000000 -10580000000.000000 0.000000	32340000000.000000 32490000000.000000 -0.000000	-1891000000.000000 -22670000.000000 -0.000000	11640000000.000000 12640000000.000000 -0.000000	-26190000000.000000 33250000000.000000 0.000000	23230000000.000000 30140000000.000000 0.000000	1874000000.000000 3283000000.000000 -0.000000	328900000.000000 -891400000.000000 -0.000000	8926000000.000000 -1838000000.000000 0.000000	-810900000.000000 2350000000.000000 0.000000	-721500000.000000 -23940000000.000000 0.000000	2249000000.000000 1831000000.000000 0.000000	15380000000.000000 18780000000.000000 0.000000	20920000000.000000 35110000000.000000 -0.000000	-28010000000.000000 -1279000000.000000 0.000000	-19190000000.000000 -14540000000.000000 0.000000	-461200000.000000 6636000000.000000 0.000000	1750000000.000000 2445000000.000000 0.000000	12200000000.000000 3735000000.000000 0.000000	46080000000.000000 -19030000000.000000 0.000000	8738000000.000000 -4101000000.000000 0.000000	-2140000000.000000 1680000000.000000 -0.000000	-1011000000.000000 4467000000.000000 -0.000000	-499400000.000000 -278800000.000000 0.000000	-2111000000.000000 6492000000.000000 0.000000	22550000000.000000 2096000000.000000 0.000000	-1483000000.000000 3544000000.000000 -0.000000	-1091000000.000000 -4168000000.000000 0.000000	-17040000000.000000 12840000000.000000 0.000000	-32280000000.000000 35920000000.000000 0.000000	8284000000.000000 417400000.000000 -0.000000	-12690000000.000000 -10770000000.000000 -0.000000	-983000000.000000 -4831000000.000000 -0.000000	-433900000.000000 -441900000.000000 0.000000	-33790000.000000 82410000.000000 0.000000	4945000000.000000 -648900000.000000 0.000000	-7632000000.000000 -18180000000.000000 -0.000000	1313000000.000000 -7340000000.000000 -0.000000	-243700000.000000 66020000.000000 0.000000	-225500000.000000 4798000000.000000 0.000000	-13000000000.000000 -18180000000.000000 0.000000	67950000000.000000 -25840000000.000000 -0.000000	-245900000.000000 5909000000.000000 0.000000	-34100000000.000000 28350000000.000000 0.000000	374700000.000000 -18130000.000000 -0.000000	-3074000000.000000 5771000000.000000 -0.000000	10660000000.000000 10020000000.000000 -0.000000	7770000000.000000 -474300000.000000 0.000000	-198100000.000000 -184800000.000000 0.000000	7753000000.000000 -1345000000.000000 -0.000000	854100000.000000 344100000.000000 0.000000	21650000000.000000 -7114000000.000000 0.000000	-8698000000.000000 -1510000000.000000 0.000000	26490000000.000000 23440000000.000000 -0.000000	-1908000000.000000 2555000000.000000 -0.000000	8919000000.000000 2300000000.000000 0.000000	-2614000000.000000 -1044000000.000000 -0.000000	-28960000000.000000 -12010000000.000000 0.000000	-2675000000.000000 -9933000000.000000 0.000000	5602000000.000000 -4019000000.000000 -0.000000	-145800000.000000 -449200000.000000 -0.000000	200200000.000000 168100000.000000 0.000000	11530000000.000000 56400000000.000000 0.000000	9281000000.000000 13850000000.000000 -0.000000	-2175000000.000000 -95950000.000000 0.000000	-1051000000.000000 1344000000.000000 -0.000000	1401000000.000000 2563000000.000000 -0.000000	1738000000.000000 1809000000.000000 0.000000	6519000000.000000 1098000000.000000 0.000000	-4660000000.000000 8039000000.000000 0.000000	-3100000000.000000 -4997000000.000000 0.000000	-1140000000.000000 1168000000.000000 -0.000000	2264000000.000000 -6735000000.000000 -0.000000	-411700000.000000 -1194000000.000000 0.000000	5612000000.000000 -692100000.000000 0.000000	-6664000000.000000 13350000000.000000 0.000000	-3815000000.000000 -2349000000.000000 0.000000	-5765000000.000000 1891000000.000000 0.000000	800800000.000000 -1775000000.000000 0.000000	-33720000000.000000 20210000000.000000 -0.000000	-18750000000.000000 -9927000000.000000 -0.000000	-1310000000.000000 -1482000000.000000 -0.000000	20200000000.000000 -9498000000.000000 -0.000000	-19930000000.000000 24220000000.000000 0.000000	7691000000.000000 7895000000.000000 0.000000	7693000000.000000 7651000000.000000 0.000000	4729000000.000000 2249000000.000000 -0.000000	-10360000000.000000 44440000000.000000 -0.000000	-1870000000.000000 -4827000000.000000 -0.000000	43430000000.000000 3014000000.000000 0.000000	893500000.000000 -1828000000.000000 0.000000	-13020000000.000000 28590000000.000000 -0.000000	3396000000.000000 1994000000.000000 0.000000	-742300000.000000 -1994000000.000000 -0.000000	26810000000.000000 -21960000000.000000 0.000000	-3648000000.000000 6757000000.000000 0.000000	-14480000000.000000 -12760000000.000000 -0.000000	1109000000.000000 -147700000.000000 -0.000000	13410000000.000000 -3111000000.000000 0.000000	-916300000.000000 -1818000000.000000 0.000000	-523900000.000000 -113900000.000000 0.000000	-5306000000.000000 2927000000.000000 0.000000	9640000000.000000 17470000000.000000 -0.000000	1457000000.000000 1612000000.000000 -0.000000	2019000000.000000 -2665000000.000000 -0.000000	-164400000.000000 -11220000000.000000 0.000000	-3158000000.000000 1318000000.000000 0.000000	2761000000.000000 -14900000000.000000 -0.000000	-4354000000.000000 -8476000000.000000 0.000000	-30580000000.000000 27000000000.000000 -0.000000	-5764000000.000000 18620000000.000000 0.000000	-6662000000.000000 -2929000000.000000 0.000000	47390000000.000000 -23110000000.000000 0.000000	-7079000000.000000 27550000000.000000 0.000000	-9489000000.000000 4334000000.000000 0.000000	1601000000.000000 3904000000.000000 0.000000	-9311000000.000000 283700000.000000 0.000000	26850000000.000000 -3061000000.000000 -0.000000	-40210000000.000000 -12600000000.000000 0.000000	-7191000000.000000 -10350000000.000000 0.000000	17580000000.000000 -20370000000.000000 0.000000	118500000.000000 797000000.000000 -0.000000	210300000.000000 1355000000.000000 -0.000000	-14080000000.000000 -3142000000.000000 0.000000	8999000000.000000 -10020000000.000000 0.000000	-23480000000.000000 6721000000.000000 -0.000000	137300000.000000 981300000.000000 -0.000000	12430000000.000000 -20930000000.000000 0.000000	25350000000.000000 -4361000000.000000 0.000000	-11580000000.000000 24520000000.000000 -0.000000	307200000.000000 386800000.000000 0.000000	7375000000.000000 4464000000.000000 -0.000000	-12710000000.000000 14920000000.000000 0.000000	1281000000.000000 918100000.000000 0.000000	-4112000000.000000 7498000000.000000 -0.000000	2488000000.000000 -558000000.000000 -0.000000	1606000000.000000 -1048000000.000000 0.000000	8223000.000000 -6743000000.000000 -0.000000	-264400000.000000 -625600000.000000 -0.000000	-234100000.000000 -51800000.000000 0.000000	-4793000000.000000 -6106000000.000000 0.000000	-7739000000.000000 6383000000.000000 0.000000	1327000000.000000 -554300000.000000 -0.000000	-10860000000.000000 -12740000000.000000 0.000000	11310000000.000000 -4198000000.000000 0.000000	1419000000.000000 -3895000000.000000 0.000000	24480000000.000000 -4043000000.000000 -0.000000	18380000000.000000 -14610000000.000000 0.000000	-17200000000.000000 -150000000.000000 0.000000	588300000.000000 -547100000.000000 0.000000	-241500000.000000 18960000.000000 0.000000	24240000000.000000 19130000000.000000 -0.000000	-5902000000.000000 376000000.000000 0.000000	-23140000000.000000 19410000000.000000 -0.000000	-12700000000.000000 814700000.000000 0.000000	-612300000.000000 -415600000.000000 0.000000	2343000000.000000 -18440000000.000000 0.000000	-9451000000.000000 -4730000000.000000 0.000000	6693000000.000000 -15780000000.000000 -0.000000	-15490000000.000000 9522000000.000000 0.000000	-10640000000.000000 30840000000.000000 0.000000	-56250000.000000 30380000.000000 0.000000	19800000000.000000 -1101000000.000000 -0.000000	24750000000.000000 20410000000.000000 0.000000	1099000000.000000 -2636000000.000000 -0.000000	20130000000.000000 -6494000000.000000 0.000000	-491000000.000000 -1113000000.000000 -0.000000	35480000000.000000 37890000000.000000 0.000000	7970000000.000000 1375000000.000000 -0.000000	317100000.000000 -158900000.000000 0.000000	7949000000.000000 12690000000.000000 -0.000000	-3563000000.000000 8848000000.000000 -0.000000	9816000000.000000 -14580000000.000000 -0.000000	-424200000.000000 -317500000.000000 -0.000000	-24150000000.000000 16390000000.000000 -0.000000	21820000000.000000 11510000000.000000 0.000000	-2596000000.000000 -1892000000.000000 0.000000	-129400000.000000 33120000.000000 0.000000	992200000.000000 4666000000.000000 0.000000	-296200000.000000 -186100000.000000 0.000000	572100000.000000 -379900000.000000 -0.000000	-163200000.000000 -452000000.000000 -0.000000	-181900000.000000 96890000.000000 0.000000	399900000.000000 1012000000.000000 -0.000000	-25490000000.000000 11380000000.000000 -0.000000	-4613000000.000000 -3131000000.000000 0.000000	28470000000.000000 -15460000000.000000 0.000000	-1148000000.000000 5882000000.000000 -0.000000	6496000000.000000 -953100000.000000 0.000000	-250100000.000000 235000000.000000 -0.000000	250500000.000000 234600000.000000 -0.000000	-6790000000.000000 -5654000000.000000 0.000000	15760000000.000000 -11510000000.000000 0.000000	-6291000000.000000 7148000000.000000 -0.000000	18660000000.000000 6057000000.000000 -0.000000	-2367000000.000000 1323000000.000000 0.000000	-2446000000.000000 -7157000000.000000 -0.000000	-11780000000.000000 6703000000.000000 0.000000	-10030000000.000000 25470000000.000000 -0.000000	-4963000000.000000 -1672000000.000000 0.000000	-459100000.000000 -1032000000.000000 -0.000000	-25840000000.000000 7484000000.000000 0.000000	4243000000.000000 2880000000.000000 0.000000	-36560000000.000000 -209700000.000000 0.000000	-2075000000.000000 68890000.000000 0.000000	-2323000.000000 -73700000.000000 0.000000	-958300000.000000 -2004000000.000000 -0.000000	-11880000000.000000 -720600000.000000 -0.000000	3912000000.000000 -526000000.000000 0.000000	-7791000000.000000 10900000.000000 -0.000000	-691000000.000000 582900000.000000 0.000000	11220000000.000000 3401000000.000000 0.000000	1506000000.000000 6866000000.000000 0.000000	625000000.000000 -10270000000.000000 0.000000	3284000000.000000 11440000000.000000 -0.000000	18000000000.000000 16200000000.000000 0.000000	-16880000000.000000 24430000000.000000 -0.000000	152100000.000000 5481000000.000000 -0.000000	4746000000.000000 -11550000000.000000 -0.000000	-6017000000.000000 8368000000.000000 0.000000	3268000000.000000 -4313000000.000000 0.000000	-11340000000.000000 19330000000.000000 0.000000	6491000000.000000 4965000000.000000 0.000000	-2865000000.000000 12220000000.000000 0.000000	6785000000.000000 4501000000.000000 -0.000000	1799000000.000000 -1663000000.000000 0.000000	-10370000000.000000 -3193000000.000000 0.000000	18320000000.000000 -12700000000.000000 -0.000000	-261800000.000000 276400000.000000 -0.000000	5375000000.000000 5202000000.000000 0.000000	46100000.000000 -171800000.000000 0.000000	10880000000.000000 7842000000.000000 0.000000	13420000000.000000 -20740000000.000000 0.000000	-3814000000.000000 8620000000.000000 0.000000	-1454000000.000000 -2354000000.000000 0.000000	-4748000000.000000 -2166000000.000000 -0.000000	-5994000000.000000 5216000000.000000 0.000000	9516000000.000000 184100000.000000 -0.000000	-1891000000.000000 -1082000000.000000 0.000000	607500000.000000 -464800000.000000 0.000000	-5206000000.000000 25650000000.000000 0.000000	-56060000.000000 5248000.000000 0.000000	5737000000.000000 146700000.000000 0.000000	365900000.000000 234400000.000000 0.000000	25370000000.000000 10850000000.000000 0.000000	1260000000.000000 -1428000000.000000 0.000000	-22270000000.000000 -4246000000.000000 -0.000000	389700000.000000 368300000.000000 -0.000000	9205000000.000000 -12110000000.000000 0.000000	-2614000000.000000 -3824000000.000000 0.000000	7681000000.000000 4351000000.000000 0.000000	6647000000.000000 2817000000.000000 0.000000	-737800000.000000 885300000.000000 -0.000000	-20110000000.000000 2666000000.000000 -0.000000	22100000000.000000 20570000000.000000 0.000000	6897000000.000000 2406000000.000000 0.000000	-550900000.000000 -11510000000.000000 0.000000	-48140000.000000 -194400000.000000 0.000000	12720000000.000000 -3373000000.000000 0.000000	2478000000.000000 8911000000.000000 -0.000000	-960400000.000000 938100000.000000 0.000000	10870000000.000000 4472000000.000000 0.000000	20610000000.000000 5505000000.000000 -0.000000	-5546000000.000000 -684400000.000000 0.000000	6292000000.000000 -5649000000.000000 0.000000	-582500000.000000 -2988000000.000000 -0.000000	-2097000000.000000 21050000000.000000 -0.000000	9220000000.000000 -11000000000.000000 -0.000000	-3508000000.000000 -10990000000.000000 -0.000000	13330000000.000000 13130000000.000000 0.000000	-5474000000.000000 4528000000.000000 0.000000	1286000000.000000 -350600000.000000 -0.000000	-1778000000.000000 -1172000000.000000 -0.000000	-585300000.000000 -1581000000.000000 0.000000	2213000000.000000 -1124000000.000000 0.000000	-2198000000.000000 2446000000.000000 -0.000000	-2827000000.000000 -3715000000.000000 0.000000	-29030000000.000000 16170000000.000000 0.000000	-5200000000.000000 811000000.000000 -0.000000	26560000000.000000 38110000000.000000 -0.000000	1179000000.000000 -1936000000.000000 -0.000000	720700000.000000 53000000.000000 -0.000000	-183800000.000000 -205000000.000000 -0.000000	184100000.000000 232600000.000000 0.000000	1213000000.000000 -3982000000.000000 0.000000	-5947000000.000000 3828000000.000000 0.000000	-99020000.000000 -17280000.000000 0.000000	-17740000000.000000 7080000000.000000 -0.000000	-1409000000.000000 -1100000000.000000 -0.000000	18340000000.000000 10000000000.000000 0.000000	11740000000.000000 3886000000.000000 0.000000	4981000000.000000 8954000000.000000 0.000000	-5220000000.000000 3629000000.000000 0.000000	-1716000000.000000 5810000000.000000 0.000000	710200000.000000 6935000000.000000 0.000000	-24760000000.000000 17890000000.000000 -0.000000	7059000000.000000 7109000000.000000 -0.000000	13550000000.000000 111900000.000000 0.000000	13100000.000000 -180600000.000000 -0.000000	1020000000.000000 1757000000.000000 -0.000000	3559000000.000000 -17380000.000000 -0.000000	912700000.000000 -1595000000.000000 0.000000	-7608000000.000000 120200000.000000 0.000000	13290000000.000000 -5362000000.000000 0.000000	-10310000000.000000 1229000000.000000 -0.000000	9973000000.000000 8912000000.000000 0.000000	9707000000.000000 18920000000.000000 -0.000000	-2082000000.000000 5618000000.000000 0.000000	14120000000.000000 8704000000.000000 0.000000	3850000000.000000 -5092000000.000000 -0.000000	-49800000.000000 -1482000000.000000 0.000000	4241000000.000000 -2567000000.000000 0.000000	-1808000000.000000 9146000000.000000 0.000000	-17100000000.000000 -1003000000.000000 -0.000000	-7204000000.000000 15700000000.000000 -0.000000	4676000000.000000 -705400000.000000 0.000000	-6011000000.000000 15440000000.000000 0.000000	4632000000.000000 6791000000.000000 0.000000	-516600000.000000 3753000000.000000 -0.000000	-1771000000.000000 -4547000000.000000 -0.000000	14470000000.000000 -3481000000.000000 0.000000	-3939000000.000000 -1524000000.000000 -0.000000	-625600000.000000 3434000000.000000 -0.000000	4079000000.000000 -3651000000.000000 -0.000000	740800000.000000 30100000.000000 -0.000000	-3712000000.000000 406800000.000000 0.000000	393500000.000000 -928300000.000000 0.000000	-21170000000.000000 -4139000000.000000 -0.000000	5815000000.000000 2261000000.000000 0.000000	1719000000.000000 11730000000.000000 0.000000	2197000000.000000 -1127000000.000000 0.000000	-15390000.000000 57300000.000000 0.000000	558500000.000000 914500000.000000 -0.000000	440400000.000000 12870000000.000000 0.000000	-10750000000.000000 -5461000000.000000 0.000000	-1522000000.000000 1389000000.000000 0.000000	16390000.000000 36620000000.000000 -0.000000	-7271000000.000000 2331000000.000000 -0.000000	-1329000000.000000 5730000000.000000 -0.000000	183100000.000000 255400000.000000 0.000000	1514000000.000000 -241200000.000000 0.000000	3991000000.000000 -10970000000.000000 0.000000	-6441000000.000000 -7545000000.000000 0.000000	-322400000.000000 323700000.000000 -0.000000	-402600000.000000 489000000.000000 0.000000	-11560000.000000 271200.000000 0.000000	-1510000000.000000 -1769000000.000000 0.000000	4571000000.000000 4326000000.000000 -0.000000	-2595000000.000000 4610000000.000000 -0.000000	4687000000.000000 2237000000.000000 0.000000	-276800000.000000 148700000.000000 0.000000	-7145000000.000000 -2978000000.000000 -0.000000	3412000000.000000 3627000000.000000 0.000000	-12550000000.000000 8010000000.000000 -0.000000	17640000000.000000 -287300000.000000 0.000000	-4197000000.000000 14970000000.000000 0.000000	-16640000000.000000 8709000000.000000 0.000000	3048000000.000000 -3354000000.000000 -0.000000	23300000000.000000 -3417000000.000000 -0.000000	-73300000.000000 -58340000.000000 -0.000000	1830000000.000000 3261000000.000000 0.000000	8083000000.000000 -1908000000.000000 -0.000000	19510000.000000 -52820000.000000 -0.000000	2694000000.000000 -2036000000.000000 0.000000	-87610000.000000 -23380000.000000 0.000000	-30940000000.000000 2538000000.000000 -0.000000	18180000000.000000 -2526000000.000000 0.000000	2081000000.000000 2765000000.000000 0.000000	-6845000000.000000 -15490000000.000000 0.000000	2820000000.000000 9543000000.000000 -0.000000	19160000000.000000 6226000000.000000 0.000000	-9286000000.000000 3392000000.000000 -0.000000	2948000000.000000 992000000.000000 0.000000	427800000.000000 6762000000.000000 -0.000000	9123000000.000000 3716000000.000000 0.000000	13250000000.000000 2492000000.000000 -0.000000	-19760000000.000000 10500000000.000000 -0.000000	2646000000.000000 1272000000.000000 0.000000	330900000.000000 -132700000.000000 0.000000	2248000000.000000 -5135000000.000000 -0.000000	1821000000.000000 28520000000.000000 0.000000	-3170000000.000000 1209000000.000000 0.000000	-677100000.000000 -1603000000.000000 -0.000000	10860000000.000000 -4867000000.000000 -0.000000	-8759000000.000000 -3990000000.000000 -0.000000	1800000000.000000 -5461000000.000000 -0.000000	-1497000000.000000 -1497000000.000000 0.000000	214500000.000000 3415000.000000 0.000000	-9842000000.000000 8640000000.000000 0.000000	-767600000.000000 -972500000.000000 0.000000	6085000000.000000 -3496000000.000000 -0.000000	-11290000000.000000 20650000000.000000 0.000000	-827100000.000000 -2242000000.000000 -0.000000	1323000000.000000 13840000000.000000 0.000000	-5447000000.000000 5366000000.000000 -0.000000	20550000000.000000 2363000000.000000 -0.000000	-7485000.000000 -51130000.000000 0.000000	-2229000000.000000 5618000000.000000 0.000000	-4164000000.000000 2420000000.000000 0.000000	981900000.000000 2122000000.000000 -0.000000	-10410000000.000000 -5287000000.000000 -0.000000	11060000000.000000 15350000000.000000 0.000000	-23030000000.000000 6419000000.000000 0.000000	-6002000000.000000 916200000.000000 0.000000	-13550000000.000000 11590000000.000000 -0.000000	-1041000000.000000 -15240000000.000000 0.000000	15420000000.000000 7127000000.000000 0.000000	5673000000.000000 15080000000.000000 -0.000000	-6121000000.000000 -7150000000.000000 0.000000	5914000000.000000 7323000000.000000 -0.000000	-135900000.000000 -63080000.000000 0.000000	291000000.000000 -125700000.000000 0.000000	-160300000.000000 47180000.000000 -0.000000	-836200000.000000 187000000.000000 -0.000000	15080000000.000000 27150000000.000000 -0.000000	725500000.000000 -612300000.000000 0.000000	-3176000000.000000 -3948000000.000000 0.000000	-2548000000.000000 78050000.000000 0.000000	-22080000000.000000 -1319000000.000000 -0.000000	1942000000.000000 8736000000.000000 -0.000000	-2020000000.000000 1168000000.000000 0.000000	-589800000.000000 -177100000.000000 0.000000	-13920000000.000000 4359000000.000000 0.000000	9794000000.000000 2418000000.000000 0.000000	680600000.000000 1524000000.000000 0.000000	-2326000000.000000 -3623000000.000000 0.000000	4720000000.000000 718900000.000000 0.000000	-8293000000.000000 4205000000.000000 -0.000000	-2017000000.000000 1742000000.000000 0.000000	2508000000.000000 11280000000.000000 -0.000000	263300000.000000 855700000.000000 0.000000	-22320000000.000000 497800000.000000 0.000000	2243000000.000000 -3808000000.000000 -0.000000	16340000000.000000 4722000000.000000 -0.000000	-3926000000.000000 7723000000.000000 -0.000000	1615000000.000000 -11490000000.000000 0.000000	-208900000.000000 -171800000.000000 -0.000000	-2387000000.000000 1195000000.000000 0.000000	5569000000.000000 -5830000000.000000 0.000000	-1581000000.000000 -19350000000.000000 -0.000000	13260000000.000000 12830000000.000000 0.000000	4538000000.000000 20590000000.000000 0.000000	247000000.000000 -445800000.000000 0.000000	-694100000.000000 1566000000.000000 0.000000	5099000000.000000 6317000000.000000 -0.000000	-6039000000.000000 -9354000000.000000 0.000000	-22160000000.000000 2539000000.000000 0.000000	3822000000.000000 -5732000000.000000 0.000000	12480000000.000000 3604000000.000000 -0.000000	-9038000000.000000 5350000000.000000 -0.000000	-41270000.000000 -3009000000.000000 0.000000	50840000.000000 -4072000.000000 0.000000	140200000.000000 -450300000.000000 0.000000	-333500000.000000 16950000.000000 0.000000	-1741000000.000000 3481000000.000000 0.000000	-8806000000.000000 1726000000.000000 0.000000	-131900000.000000 -355500000.000000 0.000000	-9105000000.000000 4353000000.000000 -0.000000	13890000000.000000 -10880000000.000000 0.000000	11870000000.000000 8162000000.000000 -0.000000	2269000000.000000 -9077000.000000 0.000000	175800000.000000 -187000000.000000 0.000000	-1179000000.000000 -779000000.000000 0.000000	-2202000000.000000 1511000000.000000 0.000000	976600000.000000 -14260000000.000000 0.000000	-2006000000.000000 -2693000000.000000 0.000000	-43760000000.000000 4781000000.000000 0.000000	5225000000.000000 8338000000.000000 0.000000	-21140000000.000000 21970000000.000000 0.000000	-2157000000.000000 -1824000000.000000 -0.000000	9010000000.000000 3301000000.000000 0.000000	16190000000.000000 -8084000000.000000 0.000000	22190000000.000000 -8199000000.000000 -0.000000	2807000000.000000 1179000000.000000 -0.000000	-14770000000.000000 11890000000.000000 0.000000	97390000.000000 2270000000.000000 0.000000	-557500000.000000 -452200000.000000 0.000000	35480000.000000 -13960000.000000 0.000000	743900000.000000 240900000.000000 -0.000000	-979100000.000000 -2163000000.000000 -0.000000	3525000000.000000 -4268000000.000000 -0.000000	-10250000000.000000 -4628000000.000000 0.000000	8069000000.000000 10160000000.000000 -0.000000	-7419000000.000000 8566000000.000000 0.000000	3983000000.000000 -816400000.000000 -0.000000	-6143000000.000000 -6509000000.000000 0.000000	1652000000.000000 -1083000000.000000 0.000000	-130200000.000000 -4861000000.000000 0.000000	3359000000.000000 -2893000000.000000 0.000000	6910000000.000000 -24910000000.000000 -0.000000	-5411000000.000000 -13630000000.000000 -0.000000	21700000.000000 5358000.000000 0.000000	-5844000000.000000 -4692000000.000000 -0.000000	-544600000.000000 -2417000000.000000 -0.000000	19740000000.000000 2310000000.000000 0.000000	-2136000000.000000 -5214000000.000000 0.000000	-17290000000.000000 24510000000.000000 0.000000	4329000000.000000 741000000.000000 -0.000000	8894000000.000000 8948000000.000000 0.000000	-2056000000.000000 -2520000000.000000 -0.000000	823400000.000000 1735000000.000000 0.000000	-1695000000.000000 1610000000.000000 0.000000	-2152000000.000000 -168000000.000000 0.000000	621900000.000000 -4249000000.000000 0.000000	3870000000.000000 5645000000.000000 0.000000	47650000000.000000 4664000000.000000 0.000000	-1998000000.000000 -6296000000.000000 0.000000	4338000000.000000 8486000000.000000 -0.000000	-442000000.000000 -2326000000.000000 -0.000000	-3218000000.000000 -4885000000.000000 0.000000	7617000000.000000 -32330000000.000000 -0.000000	-7220000000.000000 -10910000000.000000 -0.000000	-14250000000.000000 952300000.000000 0.000000	280600000.000000 -255100000.000000 0.000000	1559000000.000000 405100000.000000 -0.000000	2455000000.000000 8803000000.000000 -0.000000	-10490000000.000000 -3651000000.000000 0.000000	2961000000.000000 -1676000000.000000 0.000000	-747300000.000000 11160000000.000000 -0.000000	-580700000.000000 230400000.000000 0.000000	3276000000.000000 -7963000000.000000 0.000000	6772000000.000000 -3907000000.000000 0.000000	16620000000.000000 2513000000.000000 0.000000	3083000000.000000 7778000000.000000 -0.000000	-807900000.000000 -716700000.000000 -0.000000	16660000000.000000 -17470000000.000000 0.000000	3225000000.000000 -4702000000.000000 -0.000000	348700000.000000 670100000.000000 -0.000000	-995200000.000000 -108000000.000000 0.000000	-1340000000.000000 -2910000000.000000 0.000000	-1077000000.000000 1978000000.000000 0.000000	-17300000000.000000 -6108000000.000000 -0.000000	-4878000000.000000 -9130000000.000000 -0.000000	4331000000.000000 -6432000000.000000 0.000000	-22940000000.000000 19890000000.000000 -0.000000	12500000000.000000 8050000000.000000 0.000000	38790000.000000 -127800000.000000 -0.000000	580400000.000000 -403000000.000000 0.000000	3173000000.000000 3940000000.000000 0.000000	2112000000.000000 -14550000000.000000 0.000000	-9467000000.000000 -2031000000.000000 0.000000	-24380000000.000000 8813000000.000000 -0.000000	-7265000000.000000 -9161000000.000000 0.000000	7968000000.000000 498600000.000000 0.000000	10080000000.000000 -19930000000.000000 0.000000	-3748000000.000000 -569700000.000000 0.000000	-3922000000.000000 4269000000.000000 0.000000	-11220000000.000000 -6299000000.000000 -0.000000	5692000000.000000 7638000000.000000 -0.000000	-1452000000.000000 -507000000.000000 0.000000	-12780000000.000000 4590000000.000000 0.000000	21320000000.000000 -8142000000.000000 0.000000	-220500000.000000 576100000.000000 0.000000	-436100000.000000 1878000000.000000 0.000000	-5768000000.000000 -10370000000.000000 -0.000000	3759000000.000000 218300000.000000 0.000000	314600000.000000 -295700000.000000 -0.000000	13420000000.000000 3954000000.000000 -0.000000	-2731000000.000000 6401000000.000000 0.000000	-14160000000.000000 7484000000.000000 0.000000	2864000000.000000 2834000000.000000 0.000000	-2773000000.000000 -3648000000.000000 0.000000	3173000000.000000 -2382000000.000000 -0.000000	350000000.000000 -1371000000.000000 -0.000000	-92170000.000000 150800000.000000 0.000000	775200000.000000 -149400000.000000 0.000000	1961000000.000000 6923000000.000000 0.000000	10240000000.000000 2681000000.000000 0.000000	-6010000000.000000 -3453000000.000000 -0.000000	9367000000.000000 -8291000000.000000 0.000000	-16470000000.000000 11940000000.000000 -0.000000	532200000.000000 -2004000000.000000 0.000000	-17030000000.000000 -9225000000.000000 -0.000000	453900000.000000 -1873000000.000000 -0.000000	384700000.000000 -11460000000.000000 0.000000	-8939000000.000000 1641000000.000000 0.000000	13700000000.000000 16200000000.000000 0.000000	-7957000000.000000 -1566000000.000000 0.000000	-6349000000.000000 4008000000.000000 0.000000	-230500000.000000 -7424000000.000000 -0.000000	-1860000000.000000 -441800000.000000 -0.000000	-153700000.000000 469400000.000000 -0.000000	-10580000000.000000 749400000.000000 0.000000	38350000.000000 -78370000.000000 0.000000	4214000000.000000 -1517000000.000000 0.000000	125600000.000000 -1166000000.000000 -0.000000	10090000000.000000 6920000000.000000 0.000000	675300000.000000 -1042000000.000000 0.000000	-97990000.000000 -1747000000.000000 -0.000000	17480000000.000000 8746000000.000000 -0.000000	-7774000000.000000 760400000.000000 0.000000	-3094000000.000000 -6242000000.000000 -0.000000	-3074000000.000000 -1539000000.000000 0.000000	4150000000.000000 3606000000.000000 -0.000000	-12950000000.000000 12970000000.000000 -0.000000	-1291000000.000000 1545000000.000000 0.000000	3594000000.000000 5174000000.000000 0.000000	8620000000.000000 1675000000.000000 0.000000	546300000.000000 -4280000000.000000 0.000000	133400000.000000 -199200000.000000 -0.000000	3226000000.000000 -5256000000.000000 0.000000	621300000.000000 601600000.000000 0.000000	-623700000.000000 -3960000000.000000 -0.000000	2331000000.000000 -8403000000.000000 -0.000000	9504000.000000 1989000000.000000 -0.000000	-98840000.000000 908700000.000000 -0.000000	4047000000.000000 2000000000.000000 0.000000	22590000000.000000 13390000000.000000 0.000000	-16630000000.000000 18250000000.000000 -0.000000	-6850000000.000000 -1633000000.000000 -0.000000	1139000000.000000 -143800000.000000 0.000000	-3967000000.000000 4039000000.000000 -0.000000	-7253000000.000000 7185000000.000000 -0.000000	4259000000.000000 -115900000.000000 0.000000	-723200000.000000 1351000000.000000 0.000000	-3683000000.000000 -2620000000.000000 0.000000	1935000000.000000 3038000000.000000 0.000000	-4017000000.000000 3367000000.000000 -0.000000	-13030000000.000000 -11370000000.000000 -0.000000	-10210000000.000000 47350000000.000000 -0.000000	-6255000000.000000 7522000000.000000 -0.000000	-12860000000.000000 -1808000000.000000 0.000000	4345000000.000000 -6449000000.000000 -0.000000	-6941000000.000000 -4937000000.000000 -0.000000	-173200000.000000 52890000.000000 -0.000000	-1540000000.000000 -2627000000.000000 -0.000000	-1072000000.000000 -1010000000.000000 0.000000	-276700000.000000 77680000.000000 0.000000	173700000.000000 687900000.000000 0.000000	-4240000000.000000 -1264000000.000000 0.000000	477100000.000000 2363000000.000000 0.000000	-526300000.000000 -2236000000.000000 -0.000000	-167800000.000000 156300000.000000 0.000000	-4241000000.000000 3015000000.000000 0.000000	-2189000000.000000 -8279000000.000000 -0.000000	34980000.000000 -49710000.000000 0.000000	1873000000.000000 -12220000000.000000 -0.000000	264600000.000000 -1369000000.000000 -0.000000	-8446000000.000000 -4249000000.000000 -0.000000	355100000.000000 383300000.000000 -0.000000	-30200000.000000 -521600000.000000 0.000000	5341000000.000000 -5381000000.000000 0.000000	7272000000.000000 -2362000000.000000 -0.000000	-164400000.000000 82720000.000000 -0.000000	-3922000000.000000 -12170000000.000000 0.000000	173800000.000000 -4771000000.000000 0.000000	8436000000.000000 -4330000000.000000 0.000000	7679000000.000000 5529000000.000000 0.000000	-16080000000.000000 -2320000000.000000 0.000000	4451000000.000000 -6679000000.000000 0.000000	1936000000.000000 -3509000000.000000 -0.000000	-1767000000.000000 -3011000000.000000 0.000000	252800000.000000 162800000.000000 0.000000	10040000000.000000 9810000000.000000 0.000000	847100000.000000 -3348000000.000000 0.000000	7242000000.000000 2288000000.000000 0.000000	-3017000000.000000 2108000000.000000 0.000000	-2434000000.000000 4317000000.000000 -0.000000	1159000000.000000 366300000.000000 0.000000	1453000000.000000 2903000000.000000 0.000000	346100000.000000 -420700000.000000 0.000000	4694000000.000000 -2731000000.000000 0.000000	-11460000000.000000 -26010000.000000 0.000000	-19300000000.000000 21140000000.000000 -0.000000	-172400000.000000 -241400000.000000 -0.000000	-68680000.000000 -7329000000.000000 0.000000	257900000.000000 -440000000.000000 0.000000	20190000000.000000 4568000000.000000 0.000000	-3489000000.000000 -398200000.000000 0.000000	-140900000.000000 -14360000000.000000 -0.000000	220100000.000000 64420000.000000 0.000000	-1119000000.000000 625300000.000000 -0.000000	-1934000000.000000 -941600000.000000 -0.000000	-1024000000.000000 -1083000000.000000 0.000000	526100000.000000 -32490000.000000 0.000000	185400000.000000 -3108000000.000000 0.000000	-89300000.000000 266800000.000000 0.000000	1819000000.000000 -1135000000.000000 0.000000	14710000000.000000 7750000000.000000 0.000000	-10060000000.000000 -2574000000.000000 -0.000000	-4911000000.000000 6458000000.000000 -0.000000	947400000.000000 1593000000.000000 -0.000000	-2666000000.000000 2782000000.000000 -0.000000	3403000000.000000 -1645000000.000000 0.000000	-511300000.000000 1705000000.000000 0.000000	-8457000000.000000 8622000000.000000 -0.000000	4219000000.000000 4985000000.000000 0.000000	-3510000000.000000 7567000000.000000 0.000000	3052000000.000000 -1273000000.000000 0.000000	23870000000.000000 19990000000.000000 0.000000	720500000.000000 7346000000.000000 -0.000000	9857000000.000000 -18220000000.000000 -0.000000	-11970000000.000000 -1316000000.000000 -0.000000	-1597000000.000000 7653000000.000000 0.000000	-2213000000.000000 1248000000.000000 0.000000	1546000000.000000 669900000.000000 0.000000	-1973000000.000000 -55410000.000000 -0.000000	110200000.000000 130700000.000000 -0.000000	1529000000.000000 3737000000.000000 0.000000	-2217000000.000000 -280700000.000000 0.000000	5965000000.000000 17060000000.000000 0.000000	5749000000.000000 1152000000.000000 0.000000	-8132000000.000000 -14160000000.000000 -0.000000	2728000000.000000 -1100000000.000000 0.000000	-105700000.000000 -32670000.000000 0.000000	2548000000.000000 3161000000.000000 -0.000000	-53270000.000000 95200000.000000 0.000000	2268000000.000000 7859000000.000000 0.000000	-14950000000.000000 -630700000.000000 -0.000000	7765000000.000000 10320000000.000000 -0.000000	-7392000000.000000 -4739000000.000000 0.000000	-728900000.000000 -4068000000.000000 0.000000	408200000.000000 -1052000000.000000 0.000000	4377000000.000000 -1681000000.000000 0.000000	-4945000000.000000 -2506000000.000000 0.000000	404700000.000000 1950000000.000000 0.000000	831600000.000000 121700000.000000 -0.000000	622800000.000000 -506800000.000000 -0.000000	2927000000.000000 -280800000.000000 0.000000	-387900000.000000 3337000000.000000 -0.000000	-1914000000.000000 -1227000000.000000 0.000000	1025000000.000000 3260000000.000000 -0.000000	3583000000.000000 -1041000000.000000 0.000000	-1441000000.000000 -472100000.000000 -0.000000	24060000000.000000 10190000000.000000 -0.000000	-76610000.000000 -642200000.000000 -0.000000	-10760000000.000000 -10450000000.000000 0.000000	-10450000000.000000 -848600000.000000 0.000000	1295000000.000000 835000000.000000 -0.000000	-5730000000.000000 2778000000.000000 -0.000000	2954000000.000000 -1095000000.000000 0.000000	-1100000000.000000 -435100000.000000 0.000000	3626000000.000000 10310000000.000000 0.000000	-3907000000.000000 7064000000.000000 0.000000	-1194000000.000000 4387000000.000000 -0.000000	295800000.000000 -921300000.000000 0.000000	-5328000000.000000 2659000000.000000 -0.000000	3496000000.000000 -2278000000.000000 0.000000	3553000000.000000 942600000.000000 0.000000	-1477000000.000000 -1826000000.000000 0.000000	-8899000000.000000 6609000000.000000 -0.000000	-1807000000.000000 363300000.000000 0.000000	112500000.000000 -190900000.000000 0.000000	4644000000.000000 14320000000.000000 -0.000000	15790000000.000000 -299800000.000000 0.000000	-1105000000.000000 -2583000000.000000 0.000000	-12670000000.000000 9627000000.000000 -0.000000	36050000.000000 84290000.000000 0.000000	387700000.000000 -923100000.000000 -0.000000	-106500000.000000 75330000.000000 -0.000000	13920000000.000000 3583000000.000000 -0.000000	-3574000000.000000 8543000000.000000 0.000000	-2538000000.000000 -3419000000.000000 0.000000	-640100000.000000 347700000.000000 0.000000	1148000000.000000 5348000000.000000 0.000000	-2974000000.000000 -1456000000.000000 -0.000000	-4112000000.000000 -2112000000.000000 0.000000	1605000000.000000 -1870000000.000000 0.000000	2456000000.000000 1634000000.000000 0.000000	-394400000.000000 6181000000.000000 -0.000000	3182000000.000000 -813200000.000000 0.000000	656600000.000000 -890300000.000000 0.000000	1643000000.000000 6596000000.000000 0.000000	-14900000000.000000 -8146000000.000000 0.000000	-3880000000.000000 2636000000.000000 0.000000	2043000000.000000 -1086000000.000000 -0.000000	-1670000000.000000 -630200000.000000 -0.000000	2039000000.000000 1319000000.000000 0.000000	-2008000000.000000 2172000000.000000 0.000000	66400000.000000 16350000.000000 -0.000000	6616000000.000000 2138000000.000000 0.000000	280600000.000000 -108800000.000000 0.000000	1670000000.000000 4160000000.000000 0.000000	-14530000000.000000 17900000000.000000 -0.000000	155800000.000000 -272300000.000000 0.000000	-306500000.000000 572300000.000000 -0.000000	764600000.000000 975000000.000000 -0.000000	307700000.000000 1886000000.000000 0.000000	-146800000.000000 -23540000.000000 0.000000	-1673000000.000000 1566000000.000000 0.000000	-2013000000.000000 -863000000.000000 0.000000	-36570000.000000 84060000.000000 0.000000	2205000000.000000 5294000000.000000 -0.000000	-1000000000.000000 248200000.000000 0.000000	244900000.000000 2844000000.000000 0.000000	-2977000000.000000 3194000000.000000 -0.000000	2175000000.000000 -4004000000.000000 0.000000	-590000000.000000 -1769000000.000000 -0.000000	-3727000000.000000 -4698000000.000000 0.000000	9827000.000000 -573100000.000000 -0.000000	-1385000000.000000 678000000.000000 -0.000000	-33160000.000000 56340000.000000 0.000000	-108200000.000000 -748900000.000000 -0.000000	-1137000000.000000 225800000.000000 0.000000	1103000000.000000 158000000.000000 -0.000000	-2277000000.000000 -603600000.000000 -0.000000	1510000000.000000 1247000000.000000 0.000000	-1609000000.000000 -7245000000.000000 0.000000	2321000000.000000 -7467000000.000000 0.000000	1573000000.000000 1183000000.000000 -0.000000	-88130000.000000 -88940000.000000 0.000000	-3460000000.000000 6638000000.000000 -0.000000	2205000000.000000 6915000000.000000 -0.000000	2491000000.000000 -1615000000.000000 0.000000	-5044000000.000000 -2605000000.000000 0.000000	-158500000.000000 -595100000.000000 -0.000000	-6795000000.000000 7726000000.000000 0.000000	-5666000000.000000 -3747000000.000000 0.000000	3172000000.000000 3590000000.000000 0.000000	-17710000000.000000 24790000000.000000 -0.000000	5844000000.000000 -1146000000.000000 0.000000	2619000000.000000 273500000.000000 -0.000000	5896000000.000000 3853000000.000000 0.000000	-3723000000.000000 13610000000.000000 -0.000000	492500000.000000 -2058000000.000000 0.000000	-6426000000.000000 -4926000000.000000 0.000000	-5684000000.000000 1023000000.000000 0.000000	4031000000.000000 -11370000000.000000 0.000000	-25190000000.000000 -2716000000.000000 -0.000000	4558000000.000000 -3397000000.000000 0.000000	-15400000000.000000 -360500000.000000 0.000000	972500000.000000 -3318000000.000000 0.000000	136500000.000000 -4171000000.000000 0.000000	-415200000.000000 -1126000000.000000 -0.000000	1956000000.000000 -1565000000.000000 -0.000000	-7300000000.000000 -1903000000.000000 0.000000	6702000000.000000 -2632000000.000000 -0.000000	225100000.000000 485400000.000000 0.000000	1011000000.000000 -2271000000.000000 -0.000000	-588400000.000000 -100300000.000000 -0.000000	215600000.000000 364000000.000000 -0.000000	-10460000000.000000 7994000000.000000 -0.000000	8776000000.000000 -9241000000.000000 0.000000	-879500000.000000 835800000.000000 0.000000	840800000.000000 812000000.000000 0.000000	-2092000000.000000 2821000000.000000 -0.000000	-274500000.000000 1993000000.000000 0.000000	2882000000.000000 4765000000.000000 -0.000000	-11400000.000000 -25090000.000000 -0.000000	831400000.000000 -1096000000.000000 -0.000000	-6116000000.000000 8953000000.000000 0.000000	4763000000.000000 -2019000000.000000 0.000000	7167000000.000000 5907000000.000000 0.000000	986900000.000000 -859200000.000000 -0.000000	-2616000000.000000 -9885000000.000000 -0.000000	772900000.000000 -1823000000.000000 -0.000000	-5703000000.000000 2995000000.000000 0.000000	3682000000.000000 4276000000.000000 0.000000	-66920000.000000 2179000000.000000 0.000000	-460200000.000000 381300000.000000 -0.000000	-2253000000.000000 41330000.000000 0.000000	1022000000.000000 1704000000.000000 0.000000	-8123000000.000000 15600000000.000000 0.000000	-2181000000.000000 2367000000.000000 -0.000000	-5003000000.000000 -3272000000.000000 -0.000000	-498300000.000000 -11300000.000000 0.000000	-350900000.000000 453200000.000000 0.000000	-5050000000.000000 10460000000.000000 -0.000000	1693000000.000000 1498000000.000000 0.000000	759000000.000000 -233300000.000000 0.000000	3298000000.000000 1415000000.000000 -0.000000	1908000000.000000 -4593000000.000000 0.000000	326900000.000000 4051000000.000000 0.000000	-2185000000.000000 -1613000000.000000 0.000000	-1525000000.000000 5754000000.000000 0.000000	6397000000.000000 3982000000.000000 -0.000000	-5282000000.000000 1185000000.000000 0.000000	183200000.000000 279200000.000000 -0.000000	-10190000000.000000 7291000000.000000 -0.000000	-547800000.000000 2072000000.000000 -0.000000	-3075000000.000000 2904000000.000000 0.000000	12070000000.000000 7320000000.000000 0.000000	2402000000.000000 -480900000.000000 0.000000	2333000000.000000 -1943000000.000000 -0.000000	-3785000000.000000 -2000000000.000000 0.000000	765800000.000000 -1208000000.000000 0.000000	-4671000000.000000 1665000000.000000 0.000000	707700000.000000 600400000.000000 0.000000	1885000000.000000 -142400000.000000 -0.000000	2556000000.000000 2437000000.000000 -0.000000	6873000000.000000 8109000000.000000 0.000000	-6028000000.000000 6191000000.000000 0.000000	-459200000.000000 7396000000.000000 -0.000000	-277800000.000000 23070000.000000 -0.000000	55400000.000000 273200000.000000 -0.000000	-646200000.000000 3818000000.000000 -0.000000	40840000.000000 80960000.000000 -0.000000	3784000000.000000 958000000.000000 0.000000	-839200000.000000 1042000000.000000 0.000000	3911000000.000000 2444000000.000000 0.000000	-1522000000.000000 836800000.000000 -0.000000	-3473000000.000000 4498000000.000000 0.000000	-412000000.000000 -554100000.000000 0.000000	-44750000.000000 11200000.000000 0.000000	209600000.000000 -2565000000.000000 -0.000000	6701000000.000000 -4963000000.000000 -0.000000	-4093000000.000000 5346000000.000000 0.000000	-6852000000.000000 3259000000.000000 -0.000000	-1267000000.000000 3116000000.000000 -0.000000	4976000000.000000 10170000000.000000 -0.000000	-463500000.000000 -192300000.000000 0.000000	109700000.000000 -70540000.000000 0.000000	-161500000.000000 -3379000000.000000 0.000000	18890000000.000000 11100000000.000000 -0.000000	-5991000000.000000 -3138000000.000000 0.000000	-10420000000.000000 10420000000.000000 0.000000	1447000000.000000 -725300000.000000 0.000000	683100000.000000 1148000000.000000 0.000000	-2601000000.000000 -615100000.000000 0.000000	1513000000.000000 -5387000000.000000 -0.000000	31550000000.000000 3086000000.000000 0.000000	190200000.000000 386000000.000000 -0.000000	-30420000000.000000 -5321000000.000000 -0.000000	2218000000.000000 -173900000.000000 0.000000	18930000000.000000 28120000000.000000 0.000000	266800000.000000 -543700000.000000 0.000000	2463000000.000000 5412000000.000000 0.000000	-3499000000.000000 7204000000.000000 0.000000	3886000000.000000 -236100000.000000 0.000000	341900000.000000 -1373000000.000000 0.000000	-8617000000.000000 -1730000000.000000 0.000000	284100000.000000 -148300000.000000 0.000000	-7105000000.000000 10300000000.000000 -0.000000	6716000000.000000 14440000000.000000 0.000000	-8182000000.000000 3907000000.000000 0.000000	171000000.000000 -2660000000.000000 0.000000	-1961000000.000000 -1605000000.000000 0.000000	-9982000000.000000 11970000000.000000 -0.000000	-5033000000.000000 -2319000000.000000 0.000000	1180000000.000000 2348000000.000000 0.000000	-4660000000.000000 2795000000.000000 0.000000	3389000000.000000 3798000000.000000 -0.000000	-1248000000.000000 -135300000.000000 0.000000	4723000000.000000 -6928000000.000000 0.000000	10550000000.000000 15870000000.000000 0.000000	-4971000000.000000 5717000000.000000 0.000000	-572100000.000000 -443900000.000000 0.000000	-32210000.000000 2221000.000000 0.000000	116500000.000000 485200000.000000 0.000000	7675000000.000000 -11720000000.000000 0.000000	1939000.000000 11400000.000000 0.000000	-307700000.000000 6208000.000000 0.000000	-2837000000.000000 -623000000.000000 0.000000	-4354000000.000000 628300000.000000 -0.000000	-590500000.000000 -2071000000.000000 0.000000	-1464000000.000000 -710300000.000000 0.000000	1518000000.000000 4184000000.000000 0.000000	-934100000.000000 966800000.000000 0.000000	3147000000.000000 -742800000.000000 -0.000000	1025000000.000000 4037000000.000000 -0.000000	-876100000.000000 -1261000000.000000 0.000000	227700000.000000 65240000.000000 0.000000	-5020000000.000000 5210000000.000000 -0.000000	-473000000.000000 -1621000000.000000 0.000000	4698000000.000000 -4725000000.000000 0.000000	-776600000.000000 -167800000.000000 0.000000	2530000000.000000 -3110000000.000000 0.000000	1377000000.000000 1714000000.000000 0.000000	-2949000000.000000 2050000000.000000 -0.000000	922300000.000000 701500000.000000 -0.000000	-1897000000.000000 -4786000000.000000 -0.000000	4563000000.000000 3863000000.000000 0.000000	-12710000000.000000 -8320000000.000000 -0.000000	-1069000000.000000 197900000.000000 0.000000	9343000000.000000 14320000000.000000 0.000000	926300000.000000 6699000000.000000 -0.000000	11080000000.000000 6434000000.000000 0.000000	-980800000.000000 -326300000.000000 0.000000	516700000.000000 -498300000.000000 0.000000	554900000.000000 -121200000.000000 -0.000000	3262000000.000000 2466000000.000000 0.000000	-1962000000.000000 -2401000000.000000 0.000000	-881800000.000000 2618000000.000000 0.000000	30730000.000000 529900000.000000 -0.000000	1798000000.000000 -1150000000.000000 0.000000	8696000000.000000 11020000000.000000 0.000000	-12910000000.000000 -8511000000.000000 -0.000000	7515000000.000000 6032000000.000000 0.000000	-9439000000.000000 -1941000000.000000 -0.000000	554500000.000000 669300000.000000 -0.000000	4260000000.000000 2347000000.000000 0.000000	-71080000.000000 -2521000000.000000 0.000000	56480000.000000 5149000.000000 0.000000	1978000000.000000 -2132000000.000000 0.000000	-1907000000.000000 -2839000000.000000 0.000000	2153000000.000000 7101000000.000000 -0.000000	5176000000.000000 6077000000.000000 0.000000	-3744000000.000000 3109000000.000000 0.000000	2474000000.000000 6964000000.000000 -0.000000	21720000.000000 13300000.000000 0.000000	2065000000.000000 -176500000.000000 0.000000	398600000.000000 568300000.000000 0.000000	-2308000000.000000 791800000.000000 0.000000	-1209000000.000000 5234000000.000000 0.000000	1233000000.000000 -348200000.000000 0.000000	184700000.000000 426200000.000000 -0.000000	-603300000.000000 17090000000.000000 -0.000000	-998300000.000000 3225000000.000000 0.000000	7651000000.000000 4609000000.000000 0.000000	9102000000.000000 -7219000000.000000 -0.000000	3875000000.000000 5437000000.000000 -0.000000	-5477000000.000000 -4368000000.000000 0.000000	317200000.000000 -200000000.000000 0.000000	3207000000.000000 391500000.000000 0.000000	4284000000.000000 1639000000.000000 0.000000	3682000000.000000 -3603000000.000000 0.000000	-2352000000.000000 5368000000.000000 -0.000000	-329900000.000000 330100000.000000 -0.000000	210700000.000000 338000000.000000 -0.000000	-9026000000.000000 5128000000.000000 0.000000	1326000000.000000 780300000.000000 0.000000	-285100000.000000 -127200000.000000 0.000000	-887200000.000000 -959100000.000000 -0.000000	969500000.000000 -986100000.000000 -0.000000	-4401000000.000000 7049000000.000000 0.000000	7408000000.000000 3843000000.000000 0.000000	-8470000000.000000 2987000000.000000 0.000000	-182200000.000000 -97200000.000000 0.000000	-14320000.000000 8264000.000000 0.000000	9384000000.000000 12870000000.000000 -0.000000	-18710000000.000000 -5439000000.000000 0.000000	3533000000.000000 -454100000.000000 -0.000000	912500000.000000 -616900000.000000 -0.000000	-16320000000.000000 405600000.000000 0.000000	5924000000.000000 -1515000000.000000 -0.000000	-1704000000.000000 -186700000.000000 0.000000	-1507000000.000000 -4135000000.000000 -0.000000	482800000.000000 -3598000000.000000 0.000000	120900000.000000 -596000000.000000 -0.000000	1116000000.000000 -123100000.000000 0.000000	-1711000000.000000 261500000.000000 -0.000000	11080000000.000000 9976000000.000000 0.000000	392100000.000000 998400000.000000 0.000000	-463800000.000000 1466000000.000000 0.000000	409900000.000000 -218800000.000000 -0.000000	397200000.000000 470600000.000000 0.000000	-9314000000.000000 -1573000000.000000 0.000000	-4313000000.000000 2119000000.000000 -0.000000	-604700000.000000 -3055000000.000000 -0.000000	3452000000.000000 3074000000.000000 0.000000	-669900000.000000 -1093000000.000000 0.000000	-225700000.000000 -71890000.000000 0.000000	-1031000000.000000 -1194000000.000000 0.000000	-266700000.000000 437300000.000000 0.000000	13260000000.000000 10120000000.000000 -0.000000	-39200000.000000 -5701000000.000000 0.000000	-3953000000.000000 -3589000000.000000 0.000000	-1769000000.000000 998900000.000000 0.000000	-1037000000.000000 868200000.000000 -0.000000	1092000000.000000 -798100000.000000 0.000000	16240000.000000 -27900000.000000 0.000000	-1124000.000000 -830200.000000 -0.000000	-1624000000.000000 -1110000000.000000 0.000000	6432000000.000000 -4877000000.000000 0.000000	243300000.000000 13540000000.000000 -0.000000	1474000000.000000 -110900000.000000 0.000000	115900000.000000 32540000.000000 0.000000	-964000000.000000 1550000000.000000 -0.000000	-731600000.000000 316700000.000000 0.000000	-819700000.000000 -1582000000.000000 -0.000000	-408500000.000000 -1502000000.000000 0.000000	-7852000000.000000 7982000000.000000 -0.000000	10680000000.000000 2846000000.000000 0.000000	258800000.000000 1529000000.000000 0.000000	53850000.000000 154500000.000000 -0.000000	-1004000000.000000 -211000000.000000 0.000000	7032000000.000000 -3144000000.000000 -0.000000	-1621000000.000000 1795000000.000000 0.000000	6367000000.000000 -130600000.000000 0.000000	1860000000.000000 -2192000000.000000 0.000000	-2913000000.000000 2967000000.000000 -0.000000	325700000.000000 82160000.000000 0.000000	-137300000.000000 -17190000.000000 0.000000	-518400000.000000 677100000.000000 0.000000	5946000000.000000 8808000000.000000 0.000000	-3126000000.000000 -5884000000.000000 0.000000	-281300000.000000 742600000.000000 -0.000000	-104700000.000000 1674000.000000 0.000000	3832000000.000000 -7040000000.000000 0.000000	-985800000.000000 1771000000.000000 -0.000000	1808000000.000000 917200000.000000 -0.000000	231800000.000000 -6895000.000000 -0.000000	-23120000.000000 80640000.000000 0.000000	-78560000.000000 -125400000.000000 -0.000000	-1614000000.000000 3018000000.000000 0.000000	1231000000.000000 1802000000.000000 -0.000000	693500000.000000 -1028000000.000000 -0.000000	54190000.000000 89540000.000000 -0.000000	2553000000.000000 1714000000.000000 -0.000000	-2237000000.000000 -467700000.000000 0.000000	1408000000.000000 -1041000000.000000 0.000000	-37920000.000000 -116000000.000000 0.000000	-1790000000.000000 3840000000.000000 -0.000000	-355400000.000000 -176700000.000000 0.000000	4940000000.000000 -2843000000.000000 0.000000	-1035000000.000000 -2261000000.000000 0.000000	-2161000.000000 -56670000.000000 -0.000000	690300000.000000 610400000.000000 -0.000000	-915100000.000000 108300000.000000 -0.000000	2944000000.000000 -356700000.000000 -0.000000	-10230000000.000000 11820000000.000000 0.000000	-10840000000.000000 7611000000.000000 -0.000000	-3550000000.000000 -2821000000.000000 0.000000	-3165000000.000000 1887000000.000000 0.000000	11290000000.000000 19540000000.000000 -0.000000	-276200000.000000 1071000000.000000 0.000000	-2357000000.000000 1090000000.000000 -0.000000	1994000000.000000 1663000000.000000 -0.000000	-146300000.000000 216600000.000000 0.000000	3543000000.000000 1010000000.000000 -0.000000	-2460000000.000000 368700000.000000 0.000000	8568000000.000000 4344000000.000000 -0.000000	-7067000000.000000 -5204000000.000000 0.000000	-4413000000.000000 6712000000.000000 0.000000	327300000.000000 1264000000.000000 -0.000000	-1113000000.000000 428500000.000000 -0.000000	-94940000.000000 250500000.000000 -0.000000	1300000000.000000 665500000.000000 -0.000000	344800000.000000 -11080000000.000000 -0.000000	-3063000000.000000 1217000000.000000 -0.000000	-4718000000.000000 -6198000000.000000 -0.000000	-1655000000.000000 631700000.000000 -0.000000	23010000.000000 -1771000000.000000 0.000000	-544000000.000000 413800000.000000 -0.000000	392500000.000000 209400000.000000 -0.000000	93570000.000000 219400000.000000 -0.000000	437900000.000000 758600000.000000 -0.000000	941700000.000000 -1049000000.000000 -0.000000	6788000000.000000 -1020000000.000000 -0.000000	-2665000000.000000 7219000000.000000 -0.000000	-193900000.000000 -359800000.000000 0.000000	-106700000.000000 -1770000000.000000 0.000000	9961000.000000 124800000.000000 -0.000000	2400000000.000000 1197000000.000000 0.000000	164200000.000000 -389200000.000000 -0.000000	1984000000.000000 131900000.000000 -0.000000	-220000000.000000 601000000.000000 0.000000	9217000000.000000 -5922000000.000000 -0.000000	62940000.000000 108000000.000000 0.000000	-3599000000.000000 805900000.000000 0.000000	-362700000.000000 651600000.000000 0.000000	17350000.000000 -114800000.000000 -0.000000	-174900000.000000 -648700000.000000 0.000000	-2023000000.000000 4637000000.000000 -0.000000	-252700000.000000 -183100000.000000 0.000000	29490000.000000 -50510000.000000 0.000000	1880000000.000000 5682000000.000000 -0.000000	-143400000.000000 245600000.000000 -0.000000	-394600000.000000 -318400000.000000 0.000000	654600000.000000 444900000.000000 -0.000000	2398000000.000000 -1948000000.000000 -0.000000	-1982000000.000000 -2370000000.000000 -0.000000	1281000000.000000 850400000.000000 0.000000	737500000.000000 -834600000.000000 -0.000000	381300000.000000 -147200000.000000 0.000000	6164000000.000000 324900000.000000 -0.000000	-1679000000.000000 3338000000.000000 -0.000000	35010000.000000 -133800000.000000 0.000000	-5343000000.000000 -1986000000.000000 0.000000	-1460000000.000000 -3742000000.000000 0.000000	-6251000000.000000 5634000000.000000 -0.000000	-1090000000.000000 60290000.000000 -0.000000	142600000.000000 312800000.000000 -0.000000	29140000.000000 -207000000.000000 -0.000000	883600000.000000 -1894000000.000000 0.000000	-686400000.000000 -670700000.000000 0.000000	553100000.000000 -2545000000.000000 -0.000000	-4984000000.000000 -1449000000.000000 -0.000000	683600000.000000 3479000000.000000 -0.000000	-1055000000.000000 2543000000.000000 -0.000000	-2903000000.000000 -3822000000.000000 0.000000	2727000000.000000 -1071000000.000000 0.000000	550300000.000000 2548000000.000000 -0.000000	40440000.000000 -80160000.000000 0.000000	3596000000.000000 -1030000000.000000 0.000000	2966000000.000000 1905000000.000000 0.000000	1984000000.000000 8034000000.000000 0.000000	-489700000.000000 -252700000.000000 0.000000	-712000000.000000 1867000000.000000 0.000000	826500000.000000 231100000.000000 -0.000000	4084000000.000000 1748000000.000000 0.000000	33990000.000000 -411800000.000000 -0.000000	-3064000000.000000 1556000000.000000 -0.000000	1719000000.000000 2970000000.000000 0.000000	-128600000.000000 20330000.000000 0.000000	1229000000.000000 -1930000000.000000 0.000000	-2153000000.000000 3465000000.000000 -0.000000	104500000.000000 640000000.000000 0.000000	-3548000000.000000 -1798000000.000000 -0.000000	4099000000.000000 5206000000.000000 0.000000	-2646000000.000000 -134900000.000000 0.000000	-64470000.000000 4473000000.000000 -0.000000	-912300000.000000 3348000000.000000 0.000000	8654000000.000000 3551000000.000000 -0.000000	-354300000.000000 302600000.000000 -0.000000	-64280000.000000 141500000.000000 0.000000	573700000.000000 238500000.000000 -0.000000	8388000000.000000 -966100000.000000 0.000000	-2631000000.000000 -2377000000.000000 0.000000	-58600000.000000 84040000.000000 0.000000	-5827000000.000000 3420000000.000000 -0.000000	2631000000.000000 5528000000.000000 -0.000000	-832900000.000000 -2710000000.000000 0.000000	-240300000.000000 564700000.000000 0.000000	4076000000.000000 240000000.000000 0.000000	-2469000000.000000 2818000000.000000 -0.000000	1020000000.000000 3605000000.000000 -0.000000	-717600000.000000 2995000000.000000 -0.000000	3957000000.000000 6709000000.000000 0.000000	-2344000000.000000 618300000.000000 0.000000	-1864000.000000 -11230000.000000 -0.000000	7792000000.000000 14970000000.000000 -0.000000	74790000.000000 -30450000.000000 0.000000	255400000.000000 -438000000.000000 0.000000	-292400000.000000 -237700000.000000 -0.000000	2482000000.000000 786600000.000000 -0.000000	-2405000000.000000 1837000000.000000 -0.000000	-6534000000.000000 6101000000.000000 -0.000000	7490000000.000000 4574000000.000000 -0.000000	2988000000.000000 -393900000.000000 -0.000000	1096000000.000000 4962000000.000000 0.000000	-2122000.000000 336900000.000000 -0.000000	821000000.000000 424600000.000000 0.000000	1134000000.000000 2442000000.000000 -0.000000	-523900000.000000 -1517000000.000000 0.000000	-1874000000.000000 1168000000.000000 0.000000	77950000.000000 -434100000.000000 0.000000	-1695000000.000000 -991200000.000000 0.000000	-80130000.000000 -384500000.000000 0.000000	-344800000.000000 375800000.000000 0.000000	386500000.000000 -205400000.000000 -0.000000	107800000.000000 2031000000.000000 -0.000000	-1618000000.000000 2165000000.000000 -0.000000	71480000.000000 -6529000.000000 -0.000000	-17360000.000000 17180000.000000 0.000000	-1054000000.000000 1702000000.000000 0.000000	54410000.000000 334700000.000000 -0.000000	-1333000000.000000 232900000.000000 0.000000	331700000.000000 236500000.000000 -0.000000	-702000000.000000 -333800000.000000 0.000000	-628700000.000000 272900000.000000 0.000000	-1404000000.000000 294100000.000000 -0.000000	-455500000.000000 8100000.000000 -0.000000	468100000.000000 1753000000.000000 -0.000000	1272000000.000000 -2422000000.000000 -0.000000	-162900000.000000 -15600000.000000 0.000000	259400000.000000 -391600000.000000 0.000000	-420300000.000000 -209800000.000000 0.000000	-2236000000.000000 1481000000.000000 0.000000	1712000000.000000 -902000000.000000 -0.000000	-1708000000.000000 323000000.000000 -0.000000	2222000000.000000 2076000000.000000 0.000000	1030000000.000000 -2093000000.000000 0.000000	1867000000.000000 -606900000.000000 -0.000000	-304300000.000000 203000000.000000 0.000000	815100000.000000 1445000000.000000 0.000000	-1444000000.000000 -688400000.000000 -0.000000	43460000.000000 -302800000.000000 0.000000	-11080000000.000000 1095000000.000000 -0.000000	613500000.000000 2207000000.000000 -0.000000	1202000000.000000 360200000.000000 -0.000000	146400000.000000 281200000.000000 0.000000	-7579000000.000000 313400000.000000 0.000000	3551000000.000000 8026000000.000000 -0.000000	-679500000.000000 -865500000.000000 0.000000	-4514000000.000000 1238000000.000000 0.000000	-53770000.000000 -23010000.000000 0.000000	-12390000000.000000 -2558000000.000000 -0.000000	576200000.000000 -3489000000.000000 -0.000000	-16060000.000000 -64160000.000000 -0.000000	-835900000.000000 -628900000.000000 -0.000000	-420500000.000000 804600000.000000 -0.000000	894600000.000000 154600000.000000 -0.000000	2119000000.000000 621600000.000000 -0.000000	-9272000000.000000 6399000000.000000 -0.000000	1358000000.000000 1104000000.000000 0.000000	1105000000.000000 -2781000000.000000 -0.000000	-1597000000.000000 1242000000.000000 0.000000	-1031000000.000000 4475000000.000000 0.000000	5404000000.000000 1661000000.000000 0.000000	-6404000000.000000 908000000.000000 -0.000000	1018000000.000000 3959000000.000000 0.000000	-670900000.000000 -31110000.000000 0.000000	45720000.000000 -33610000.000000 -0.000000	24340000.000000 -11600000.000000 0.000000	-1713000000.000000 3600000000.000000 0.000000	598400000.000000 172000000.000000 0.000000	-2844000000.000000 5395000000.000000 -0.000000	-907600000.000000 -956700000.000000 -0.000000	82680000.000000 14190000.000000 0.000000	-709000000.000000 -598800000.000000 -0.000000	344500000.000000 -1340000000.000000 -0.000000	1061000000.000000 839200000.000000 -0.000000	234900000.000000 280400000.000000 0.000000	-200200000.000000 -136500000.000000 0.000000	-259700000.000000 6954000000.000000 -0.000000	629300000.000000 -588800000.000000 -0.000000	-89180000.000000 -10420000.000000 0.000000	-1770000000.000000 -2288000000.000000 -0.000000	286600000.000000 -274500000.000000 -0.000000	7456000000.000000 -4743000000.000000 0.000000	-1214000000.000000 -2330000000.000000 0.000000	-5577000000.000000 3103000000.000000 -0.000000	-1026000000.000000 3734000000.000000 0.000000	2564000000.000000 1935000000.000000 -0.000000	-1197000000.000000 3227000000.000000 -0.000000	-1074000000.000000 -203500000.000000 0.000000	-887500000.000000 1935000000.000000 0.000000	-122800000.000000 23370000.000000 -0.000000	-25090000.000000 -680400000.000000 0.000000	1268000000.000000 -757400000.000000 0.000000	-19300000.000000 -18830000.000000 0.000000	-173600000.000000 265300000.000000 -0.000000	-496300000.000000 -302700000.000000 0.000000	1205000000.000000 365600000.000000 -0.000000	1336000000.000000 104300000.000000 0.000000	-2659000000.000000 1643000000.000000 0.000000	-1946000000.000000 -4447000000.000000 0.000000	79460000.000000 133600000.000000 0.000000	-1574000000.000000 708100000.000000 -0.000000	145700000.000000 1206000000.000000 -0.000000	1160000000.000000 863300000.000000 -0.000000	-6330000000.000000 2145000000.000000 0.000000	-864400000.000000 1897000000.000000 -0.000000	-1577000000.000000 -810700000.000000 0.000000	1155000000.000000 -242900000.000000 -0.000000	489400000.000000 -825500000.000000 0.000000	134700000.000000 4824000000.000000 -0.000000	-2410000000.000000 2029000000.000000 0.000000	48750000.000000 -2238000000.000000 0.000000	312700000.000000 -212700000.000000 -0.000000	-2382000000.000000 -2698000000.000000 -0.000000	43610000.000000 517700000.000000 0.000000	128600000.000000 1707000000.000000 -0.000000	
VECTORS net_force float
30087089243.852074 62481208356.998802 0.000000	2041935289.090891 3383227975.510365 0.000000	761458289.543597 1385490038.558561 0.000000	-1083883136.904191 1116053891.881593 0.000000	21697058046.788948 42710249030.924973 0.000000	-761458289.543591 1385490038.558566 0.000000	33138170084.670593 74415310162.178421 0.000000	-6588644659.288464 17283551205.651756 0.000000	-2363738707.904177 14523696241.218830 0.000000	9640304392.778927 89726930578.667191 0.000000	14825852513.106689 47114245712.318611 0.000000	3429584806.439563 2862620883.720722 0.000000	25823090530.514244 76046292252.817276 0.000000	-3233972251.587508 2691169617.106018 0.000000	58410622520.358643 78665680273.244110 0.000000	59338836539.278000 97429747140.502182 0.000000	-10519288827.975315 26291738902.862904 0.000000	-31719341112.594170 67352155442.402969 0.000000	-12663809892.947569 19672178480.085228 0.000000	140979282324.720520 153351822468.284241 0.000000	-10360763242.648790 23840859654.045296 0.000000	-28437939287.769592 30184264515.745296 0.000000	103938138571.453156 94716975648.099167 0.000000	72636022513.798096 119977856811.429306 0.000000	-12925899612.197657 18230901045.020882 0.000000	4554109219.586523 51709371836.514038 0.000000	33525481577.574585 170598149038.175690 0.000000	52838047.696732 150585274042.289459 0.000000	62258943979.972351 328187737335.541321 0.000000	656866022.880260 1385434260.838705 0.000000	-3225898204.926675 3201165211.019469 0.000000	-657005698.062291 1385331311.807764 0.000000	37212157670.119110 51418266614.054993 0.000000	27743912372.977486 152886611290.408478 0.000000	-36763148985.490601 54856029141.662613 0.000000	-55339868048.091934 76952174985.745392 0.000000	131031196965.067108 186436351789.812714 0.000000	-34385208988.702690 75551315057.554001 0.000000	105056574648.401749 107748593308.286133 0.000000	-4483134930.116172 10345535593.076023 0.000000	63914854879.330994 178361530034.576813 0.000000	31958768227.844547 29724136296.541275 0.000000	22222138066.601402 81755162437.386383 0.000000	-3138947358.534945 119919203458.225998 0.000000	82895789220.715698 213809550988.733795 0.000000	90692561796.880539 205125582720.664154 0.000000	-44936570541.347687 161416986470.664276 0.000000	-18382419189.548874 13100100462.922638 0.000000	1827854038.085757 1385252289.261304 0.000000	-1827854038.085739 1385252289.261318 0.000000	104081188982.058746 386912305169.014038 0.000000	-78727140627.157516 228353103964.282196 0.000000	30089083195.357338 51968924109.053238 0.000000	67334913358.883095 61591157352.628342 0.000000	-87830914423.041016 71857058862.318710 0.000000	-32070761271.322365 79310307738.146362 0.000000	33445683468.196060 75644082205.514374 0.000000	107967494441.019196 204959222517.213074 0.000000	-80486494304.073090 147503618501.818085 0.000000	-44169616185.862320 165358103413.852661 0.000000	76560568895.066971 167976369872.419250 0.000000	1098248065.252909 1385612157.127142 0.000000	-34698446836.932320 84743194321.074356 0.000000	-1098258065.252909 1385622157.127142 0.000000	28119261502.701580 26292010154.481335 0.000000	-53944269602.532944 130856525277.834335 0.000000	27776746501.804916 96177782641.879959 0.000000	-48718886754.242004 154678080358.136749 0.000000	-79922560073.379120 230716264881.349365 0.000000	67985705067.311623 78752341003.696335 0.000000	-41012419760.138054 129908422883.168182 0.000000	109370594451.146393 322333867591.075806 0.000000	-52196678699.103455 147330870430.792053 0.000000	71500373284.055969 54367076138.868423 0.000000	-274493079387.095795 248792082557.068115 0.000000	14257319334.103249 130523038385.761581 0.000000	3925849140.407420 5232240918.473812 0.000000	-161465641858.311584 316703336258.052795 0.000000	7711614198.378717 226227784208.644440 0.000000	17027410045.488173 80164404445.462036 0.000000	41554925585.164597 212723598038.572235 0.000000	24603324732.728844 87916711448.918686 0.000000	-23073703559.967697 40892616624.066444 0.000000	-173117704068.059723 209047996072.025452 0.000000	26930367982.058182 194354329282.019623 0.000000	-18659104104.547394 48238731157.980225 0.000000	-84996096613.953186 210287715315.389465 0.000000	-48503215748.092606 102132903282.299667 0.000000	26622413750.300602 45094955203.284821 0.000000	-114242449159.981934 159069662356.988892 0.000000	-20689814425.691086 77131158977.039993 0.000000	11511035369.972420 71694153554.646454 0.000000	-22066427569.284996 131817097801.962952 0.000000	2020164574.822246 1498235894.422432 0.000000	-25553175213.235569 19602439711.771015 0.000000	-12735506769.826359 57054544915.295708 0.000000	4629023819.671547 159605161182.393250 0.000000	-83865979719.509155 137867559110.202484 0.000000	-15304328264.635052 81362617648.915482 0.000000	-57584706470.877258 75430448025.577255 0.000000	-23080789372.792381 54369014875.422333 0.000000	1276493255.302788 8197505281.328720 0.000000	-37411092597.060638 44470205410.588402 0.000000	970632165.995438 2593314985.948835 0.000000	-18832598877.965347 15656659824.508526 0.000000	1767891808.948041 5710974529.170055 0.000000	-8203641759.967948 17460720197.341129 0.000000	200336137921.133392 96590717743.117493 0.000000	-174692644610.680481 141541731559.473816 0.000000	25613108896.405735 216008570620.245209 0.000000	-9057814020.160973 168976970768.772339 0.000000	-59553624189.263382 140675603320.084778 0.000000	50502637112.976074 6092596292.184175 0.000000	1718659075.537024 171986578109.880615 0.000000	-46201248967.880585 11654056176.951395 0.000000	76792871215.022064 56667245816.905235 0.000000	-42168172526.164246 88564626289.096878 0.000000	-13298733820.891066 7040735512.606705 0.000000	74025837027.672913 207326913440.602020 0.000000	-9457650634.574310 6926759331.333660 0.000000	144430402894.882935 5738253150.958103 0.000000	98635887681.250183 25907327984.622818 0.000000	12986409505.145206 50754514398.719208 0.000000	-57975556498.509781 77136551917.265152 0.000000	-16093233517.568020 39669122639.909828 0.000000	-70323298816.261536 15326694203.375839 0.000000	140113718560.535767 76666974893.166611 0.000000	50589469919.747688 41296828.342434 0.000000	-160156776738.162262 197656536314.865875 0.000000	-59040483829.592087 52234861019.646507 0.000000	24105424089.808609 25527701919.463825 0.000000	-1596399923.829943 532796543.884195 0.000000	6060573241.104601 2732640556.877481 0.000000	-34068473315.611572 146605498332.544464 0.000000	-18182019301.020348 120906227568.201309 0.000000	-38819790629.784180 179568743517.702545 0.000000	73122477861.685974 88072601607.272675 0.000000	-31475040436.229328 5829327788.108846 0.000000	25728623112.837540 25550654345.534595 0.000000	-99516963054.702942 24155943806.636826 0.000000	-24666508820.017872 7220853309.294885 0.000000	47920445775.332237 24345078187.222916 0.000000	-8940433379.238401 15307251202.553919 0.000000	34288191318.740555 1622901281.345848 0.000000	-47226450116.418396 21968545459.940533 0.000000	16807290144.546223 30217282794.876617 0.000000	-62894497005.034874 15723372456.476791 0.000000	26407137655.575195 166013689664.329773 0.000000	-4654608743.101727 181497455538.126923 0.000000	38482403082.633072 10713370871.825191 0.000000	-10151127909.537457 2936743569.535846 0.000000	57819984249.644379 178783072002.409271 0.000000	-6493086280.859523 7577657980.737504 0.000000	94290536178.913010 83904620301.269806 0.000000	115613045911.064911 -4641373943.146978 0.000000	121806970931.751465 49040030689.832962 0.000000	8052802699.645863 4695049847.811382 0.000000	-10907725295.361292 187917468534.834351 0.000000	-57876529879.779671 25546403202.523266 0.000000	91404204606.159882 110457472367.456467 0.000000	-46366354359.507088 125162952315.783081 0.000000	-241620668039.103973 113191386861.562576 0.000000	81580192070.996613 398724947496.439087 0.000000	185422383219.731995 81117880812.550140 0.000000	-8970389263.474897 5789969369.205982 0.000000	99698264405.990067 173372921099.418976 0.000000	-13170888532.892830 96386132097.034836 0.000000	78549733127.947266 134279165589.238419 0.000000	-51522315532.275864 52282769623.196754 0.000000	-105582543350.941147 2327075859.437080 0.000000	-997258216.068645 8985846418.023861 0.000000	106618471419.667892 117068849918.058319 0.000000	23964827724.654846 7869733444.932665 0.000000	10365973887.508841 95994194485.454666 0.000000	10475441032.892090 9595372698.922390 0.000000	41943494370.858047 115605314575.481491 0.000000	-79299243707.898895 133454331558.843735 0.000000	-117266514972.928864 143448609958.077820 0.000000	79893112422.627502 83406306065.574249 0.000000	-18379165189.483570 45862240469.097900 0.000000	-73819051412.542648 47255921655.240585 0.000000	134098171413.848816 137481992967.427612 0.000000	-46253513469.464951 105615149717.312042 0.000000	18109581370.120583 17338636012.075630 0.000000	-38630396974.373093 91673145808.745605 0.000000	47920932239.180740 102207739020.738525 0.000000	48318839138.671562 165954179351.225433 0.000000	-63640884802.758698 -6386542076.964315 0.000000	-33468135423.819374 100161543037.340530 0.000000	29726866987.250198 20590970042.685215 0.000000	92468275751.547424 113438426433.852798 0.000000	-66277193119.274673 61917717028.684616 0.000000	12081094601.096626 362158813.270344 0.000000	41941732634.265060 118364105346.313522 0.000000	-27807612370.687431 34488846158.514130 0.000000	6283690009.890363 4550046328.635069 0.000000	86030612530.229385 260665672985.952911 0.000000	103440701471.417175 257468275184.681488 0.000000	-11162100525.007484 29898445836.247158 0.000000	7195644136.131150 4120891792.112365 0.000000	-47912505272.311592 29397394426.110825 0.000000	-40721366550.720528 11347343340.117214 0.000000	3680949035.014072 2509698427.531055 0.000000	10593809036.965668 239292961057.053833 0.000000	-43752938644.126968 20495761819.569206 0.000000	-73677300781.168884 214771214501.027496 0.000000	57480266216.411392 18334669546.889145 0.000000	315473100.847520 66622210091.878098 0.000000	-43732265116.563164 30023862762.823715 0.000000	-26394173769.379211 83548213262.276215 0.000000	108407475336.875092 75170593403.152710 0.000000	11819144267.251736 10050865080.645140 0.000000	52370073941.615929 156273039480.484589 0.000000	40956684842.437210 -3223892405.643318 0.000000	23236953370.382004 147380304027.026428 0.000000	646517388.402814 357442977.287741 0.000000	-45348950202.112755 89465201410.613281 0.000000	50990075071.511940 59808913222.830940 0.000000	-8611827832.081879 2561988944.040441 0.000000	-104322929050.458618 54745692069.184669 0.000000	-266334658919.925842 258591044905.679291 0.000000	-63194162378.638824 308124502841.690247 0.000000	203180745403.883453 71655581489.113556 0.000000	125706278052.440033 283113076657.153809 0.000000	-136262203798.713654 112030740790.020905 0.000000	101836663051.934830 -23513111507.233528 0.000000	137529516464.048706 243824687014.679962 0.000000	-91596556067.454453 21394024726.544979 0.000000	52927891639.710831 119604636645.986099 0.000000	-139078621013.531158 98493373517.861343 0.000000	-33527063988.650600 45311971511.063881 0.000000	59860101242.603966 11151376923.324356 0.000000	-44422283689.832916 158034599026.517334 0.000000	-14240508550.589802 5517321686.158820 0.000000	125534949052.562683 132396601678.952301 0.000000	-45501872648.227654 946525157.627832 0.000000	27928009015.600380 30495814760.647240 0.000000	134586278585.610474 78315559870.997604 0.000000	-125453107909.453247 56444562810.024551 0.000000	-34710792700.060593 88742143708.175751 0.000000	43845564055.870918 23823690931.726460 0.000000	97990821229.814957 150480723189.282074 0.000000	-29977191871.503426 72748923170.251343 0.000000	-84110197703.419785 50752542049.788666 0.000000	33429197880.482101 105208192940.475128 0.000000	-37372772536.943977 147017331697.202148 0.000000	-76206014061.788971 91171581049.269531 0.000000	215547714066.331207 12600019110.753761 0.000000	-28994769334.081451 49729819989.704643 0.000000	178736386683.022919 127869985454.278152 0.000000	1426470829.503623 479868999.146593 0.000000	-124578697816.170090 90256905092.844101 0.000000	-80861472461.348907 197605134221.600250 0.000000	92342448307.795822 113872896739.987244 0.000000	-121798533041.919556 99909870913.985275 0.000000	96335987586.931671 67078271220.190170 0.000000	1682107010.811215 18904558473.310272 0.000000	-125903922225.041458 -11136337934.304062 0.000000	19187216495.435181 203579251560.546295 0.000000	109629522526.648438 118585570875.375732 0.000000	-278962971924.705078 304592489002.758972 0.000000	292567993226.081909 43918437952.841873 0.000000	43543493044.665428 99019312940.863297 0.000000	20249861293.575188 -1483622590.108188 0.000000	-33433574178.759216 22321704851.968136 0.000000	186359864211.714783 -5327066202.585899 0.000000	7806954160.042194 209160061197.653778 0.000000	-6158815606.288819 85072907418.476883 0.000000	144951163988.740082 125925537853.242615 0.000000	-144707399215.277985 179029808094.703979 0.000000	14734237606.244049 265535269143.539154 0.000000	-14511876639.577452 17222020894.379128 0.000000	-86170466615.853424 108089496300.781525 0.000000	131466032199.876694 -18147507972.060955 0.000000	-23521183467.481270 144419893995.002350 0.000000	7920653245.381903 6541906041.603797 0.000000	-148267870141.410767 89034434004.053909 0.000000	-18920944705.554028 183865977595.768890 0.000000	-95624194950.557892 237902166770.662109 0.000000	-41830684559.889366 137733652316.333435 0.000000	72171936823.262360 89162875181.465225 0.000000	-1978676417.639187 37347195953.722275 0.000000	56737742429.782295 128278277972.956528 0.000000	-33664323479.366615 -804552524.834958 0.000000	34786520029.958900 41276740191.047516 0.000000	-136296354025.546326 114820204120.434021 0.000000	23305606086.517582 8093493267.413305 0.000000	-139064293396.740936 39650072671.160263 0.000000	-43569612622.013992 181031015391.053955 0.000000	-35763715432.128723 30396289669.708557 0.000000	89116894307.837296 100373123886.459335 0.000000	-29658924300.396351 11413681347.342918 0.000000	-111087307170.928085 167915339315.803864 0.000000	27688024633.422764 46119524401.047234 0.000000	3498222965.796980 11434877476.338457 0.000000	94784021182.562973 63895793443.548355 0.000000	71845404296.889343 54195777059.752502 0.000000	-56072599345.338768 12466084014.559601 0.000000	-59412302735.319511 28085557949.845451 0.000000	-226293615447.610535 289476017052.479980 0.000000	-3973613633.938946 172064728494.055115 0.000000	-32558344598.109093 53364885939.518608 0.000000	117255940861.725128 146236822463.039734 0.000000	-81943457446.060150 111222574261.315674 0.000000	-18969759161.652485 15200122304.106310 0.000000	51184602985.257309 17852598342.810734 0.000000	46875704943.649643 182189796527.290771 0.000000	58158690441.865623 22693347883.734146 0.000000	-115869264424.983749 -20471232505.853794 0.000000	-8500683397.213387 15039527808.187967 0.000000	-76830089954.748489 94317668156.603775 0.000000	-241284594557.400269 191496829985.741852 0.000000	-37590095163.161835 208402262340.402649 0.000000	-135051472899.208405 138310773951.674835 0.000000	24029691515.671925 8338566523.689686 0.000000	-14668486214.855055 14195294056.431715 0.000000	-35786165134.992767 160453020519.776886 0.000000	109507961286.808823 134590746408.156372 0.000000	31459924197.331188 44201573024.330032 0.000000	18723144054.978374 28234512236.929161 0.000000	22055589488.387489 9687627297.002886 0.000000	-29702000415.317787 52363845535.566322 0.000000	25848671361.262619 15581377171.742353 0.000000	13541756198.100229 98978101255.110764 0.000000	11590696566.897322 9009103665.686243 0.000000	-203945976168.004700 48972837816.864029 0.000000	36573312084.082535 84017277746.305862 0.000000	141594321626.952209 192071882085.254364 0.000000	2589105997.749640 113373932269.289902 0.000000	-82530124743.878571 71609347993.046661 0.000000	-165810228726.778625 28683544159.964436 0.000000	-86657018770.101440 84307045654.544754 0.000000	251535752.206645 199456038.496449 0.000000	42002455056.971977 281729897052.293701 0.000000	-82422628305.187256 13207800459.976883 0.000000	113829317126.261597 12773885262.239429 0.000000	6661841587.572152 25588306249.125713 0.000000	134825635900.287231 11140766907.442654 0.000000	-73799945734.188950 25287622418.527550 0.000000	154704180235.891113 202216379458.235138 0.000000	168407792854.327209 12935513118.059385 0.000000	60348356568.197357 142035302223.139893 0.000000	444456746.848036 1424184111.512877 0.000000	155728192680.893707 90304269188.765594 0.000000	-48296184010.965050 72782253519.653259 0.000000	12365237379.815924 74795560458.374329 0.000000	-814309689.895086 475545256.725148 0.000000	13491768484.535385 31700395084.351818 0.000000	-11539451990.772247 31100976776.617378 0.000000	51869995379.967575 84879482264.966690 0.000000	-18108491214.667362 52678953257.086151 0.000000	-58546908159.470169 119644387897.215149 0.000000	27768707602.322517 24719264614.154312 0.000000	-40573568.401176 37033023788.210655 0.000000	-109835760016.430222 267437478279.189758 0.000000	-123790506350.617615 216710211317.857666 0.000000	-71912724873.518402 8695672908.690228 0.000000	50369885223.399559 58395842406.470306 0.000000	-1666712644.015870 44384571.550466 0.000000	-78108075981.448013 93196987517.874634 0.000000	-177461709634.589539 95033452983.068848 0.000000	-119709829151.738281 100333848172.633194 0.000000	-5050121460.949497 65150734027.502792 0.000000	40203348972.525940 33587577513.251354 0.000000	-66592006306.811913 39775245207.214195 0.000000	-189275679093.363983 185922726808.234955 0.000000	-3505135389.168013 60690798303.986618 0.000000	35120823082.543602 31076513209.445290 0.000000	-115268368256.601654 64589328848.786072 0.000000	33627798306.535439 35068941003.400940 0.000000	24715805656.603523 823605873.976101 0.000000	-18371940909.696217 5005173046.921216 0.000000	10492947700.006723 38928383964.103706 0.000000	122270749385.142639 77697808051.171875 0.000000	-48161364432.139023 69708283196.439743 0.000000	38192554062.636360 135863883229.519241 0.000000	11065685375.471071 2853145225.513148 0.000000	36066635018.397659 136706633311.048767 0.000000	-131540268057.653641 203163509951.716614 0.000000	-10547087808.609335 6685319561.278400 0.000000	116725292182.555695 195957269995.861267 0.000000	126945326954.767059 144908227810.048950 0.000000	-20750125519.477600 35593237835.380783 0.000000	-76704130778.989365 92534533834.744217 0.000000	-36280958778.940529 88528569893.165314 0.000000	168640854743.302582 86166897813.845276 0.000000	-54336140899.321953 15510575055.362331 0.000000	33325963922.554504 148463470452.613495 0.000000	44645485016.511971 19560169793.484241 0.000000	111739343921.033890 85436425607.888367 0.000000	-28758405606.270546 56727943765.340324 0.000000	-7832365221.494443 647085222.963272 0.000000	196574974501.031250 185542923913.529968 0.000000	30201597302.392979 25036651595.854607 0.000000	-134492619830.150314 123398808314.055893 0.000000	17631898286.380867 123654577168.951584 0.000000	27639215720.575851 58250792020.583275 0.000000	-256700927783.299957 127019821270.614105 0.000000	-1713814925.865685 5363337211.332193 0.000000	11199978340.717930 32845916742.017090 0.000000	-224122955929.429077 146481163994.189972 0.000000	-51518074357.636955 49512499964.017441 0.000000	29260774824.564922 17978597177.035324 0.000000	-41669936914.818611 -10611308442.124372 0.000000	24752460563.092903 68241137188.539185 0.000000	69200145881.518127 -2589646855.822802 0.000000	-33065093308.279732 6277695165.728992 0.000000	125124809579.705933 203281173906.198792 0.000000	83067061300.974686 46118775393.505768 0.000000	-16694068330.942425 19904335389.366619 0.000000	125249769303.284027 136624612166.679108 0.000000	226630419076.709747 87596627172.780243 0.000000	12981630379.980618 53524620755.651093 0.000000	-43061465957.192223 22214025522.173534 0.000000	-7182976896.021924 69981220886.104248 0.000000	52268037093.812286 219794139923.443481 0.000000	-92011692823.734222 152671971672.741547 0.000000	-42186051186.478775 13994676881.317005 0.000000	93922153988.005264 45451846863.117500 0.000000	-92506290923.637527 14548280171.403549 0.000000	-16045406417.772875 3875815118.008012 0.000000	-38515032347.313843 106467393731.494217 0.000000	80312657036.421982 53993679944.927238 0.000000	28476318119.616013 188231277966.437073 0.000000	-3193265601.120183 1447241816.791488 0.000000	83974426885.402145 21519629935.246170 0.000000	66158453487.162659 232448543988.383362 0.000000	123430380493.513687 88259212098.963531 0.000000	-1444938698.644619 1777547633.725091 0.000000	-52404035472.156418 103290701442.569000 0.000000	105062423708.308578 115228255960.666748 0.000000	-154675435329.656403 218866695497.348206 0.000000	43385949469.555191 33522034971.302624 0.000000	14756782091.258835 54153259225.110199 0.000000	23536229807.438938 32547824451.751694 0.000000	30128199870.020126 -6705672403.608578 0.000000	-7218048350.039868 2317931148.805429 0.000000	-803565104.123577 2521953192.360434 0.000000	-55340434332.064354 33603888975.488739 0.000000	146849244992.973511 193610974699.275146 0.000000	3225355319.886363 3987965522.782561 0.000000	-168219421354.018951 121593996110.918732 0.000000	48760379439.017487 96674340509.545120 0.000000	26217537377.173332 5130776639.876333 0.000000	38039811760.253372 78034448821.381470 0.000000	67060465780.854065 46679519098.774933 0.000000	-17932288027.305649 84176820491.733612 0.000000	4452861965.236772 3608713496.398184 0.000000	-178170778.128745 825076225.898711 0.000000	-100232455179.433090 176824064256.090546 0.000000	-3404069938.606511 39636615703.378700 0.000000	67266244093.500397 127220950412.777771 0.000000	-582764532.237936 190027100768.604004 0.000000	-2629234808.018784 2557886670.594343 0.000000	86098207228.547791 -7786823849.057165 0.000000	-63468589034.584015 103207899159.149780 0.000000	84448632055.854752 17223675304.343510 0.000000	93464619727.382217 186819774492.692200 0.000000	118196225392.843674 75325020248.667786 0.000000	47708960.928396 222791601.632251 0.000000	24598773632.863857 85145600927.923706 0.000000	-54026825905.174484 115912103119.804810 0.000000	36719274377.917976 12209341129.183924 0.000000	56309185195.836945 105612674906.382507 0.000000	-6866053546.212259 1697299144.740020 0.000000	-120954387091.937378 184503923401.462402 0.000000	2584983072.634204 32634558421.257069 0.000000	7970719810.691160 15166210237.560961 0.000000	-69451912584.725708 61169558899.103539 0.000000	39794477105.776505 26305284411.444584 0.000000	111177711451.473358 53674255923.189545 0.000000	-16193727509.290655 20867638709.334076 0.000000	38199004337.305481 108224643017.472763 0.000000	-25902738400.557152 101996630170.163742 0.000000	-14506121377.281645 14448055348.083086 0.000000	580931478.102969 2807633505.322339 0.000000	-55554503155.332008 16685420213.253431 0.000000	-67299336932.411179 106285584692.300034 0.000000	8085117673.529437 10932525267.697212 0.000000	-3557521897.717786 774156537.589521 0.000000	4523084906.715210 8932229100.882437 0.000000	-7853190324.822071 4273039112.051300 0.000000	46339770649.102631 172055088450.255157 0.000000	-54440327808.091164 70251064590.096024 0.000000	92915148820.976395 103278505942.437241 0.000000	45818586649.212997 15034171246.320042 0.000000	16125777567.023273 64623616782.785454 0.000000	830149215.329944 1383908452.740705 0.000000	-830030312.165192 1387359404.425829 0.000000	-41226462730.686760 35719891944.051170 0.000000	85611877862.969467 84089556269.978561 0.000000	61456477942.691109 66804953764.038109 0.000000	-2148478543.050442 70196006234.298706 0.000000	2060842568.359019 9249061518.170788 0.000000	-37978227938.487968 4986445875.340950 0.000000	44063278731.141579 104825057767.639740 0.000000	139022670253.048859 84184065524.675476 0.000000	-36278664052.215836 91295409262.433228 0.000000	-15873262969.644466 5823689603.915958 0.000000	288007732.208202 97644435402.374069 0.000000	-15446245229.168934 31889260974.827480 0.000000	-37390317827.517883 145287930813.375458 0.000000	-1826565869.321656 7562773137.780712 0.000000	-44380401603.454170 1321341026.508875 0.000000	-7733695548.405212 1237779783.182509 0.000000	-19101871131.220421 118160241927.385605 0.000000	16919025650.675350 96122681748.499146 0.000000	-7684376145.739952 76570825753.318893 0.000000	3922739726.130110 6054285084.192928 0.000000	-16942511768.619987 96400364679.993073 0.000000	-21565640311.825783 11926021079.178963 0.000000	71912874015.795029 -5927717385.045485 0.000000	-41154492862.277191 24184930448.195427 0.000000	-52923974050.140167 94976836093.708679 0.000000	76085731573.207001 88666848872.422318 0.000000	-128898202896.875275 9062804325.300922 0.000000	129241625902.917953 39616386730.359482 0.000000	124118516136.507889 101967345296.239639 0.000000	23297984021.356522 10863186612.723314 0.000000	61068781930.970261 61790474553.085167 0.000000	-58910427534.146461 90407455936.705093 0.000000	39875033290.788353 22244946598.476395 0.000000	-38657896289.147430 73045589697.902420 0.000000	18001979993.109848 15865272571.559414 0.000000	-36444843843.048431 81577387627.759720 0.000000	156113597695.938477 185874455643.241913 0.000000	5989957490.743583 6197958010.940322 0.000000	-12021103818.683853 23170741523.255688 0.000000	1313294715.790074 168143454.524003 0.000000	-37092903444.133194 74406277470.275848 0.000000	129018425450.030975 54081748398.935669 0.000000	42596709998.337883 29177811105.518497 0.000000	-128718221314.423065 76093867869.264236 0.000000	-15741882558.278141 21956907086.310883 0.000000	22010947328.016750 37409971876.036163 0.000000	7977813913.142727 79679219872.619858 0.000000	-28281832089.837597 45018524743.282463 0.000000	11057328186.797783 13196865010.766680 0.000000	91302634843.307388 45255963395.894539 0.000000	195660978.881325 2782865243.032421 0.000000	2500665231.581942 126905392551.109604 0.000000	-4163812200.325977 7327408063.030663 0.000000	-26530974934.030586 132435890632.495392 0.000000	6015061764.897290 2777531073.718498 0.000000	-46367318427.316849 122381521671.287949 0.000000	-1713613958.752876 2592213530.449264 0.000000	144559806191.509155 90744637430.010864 0.000000	-21254911710.033543 8918559029.438877 0.000000	-18115412696.804024 49903909808.004234 0.000000	-3294517030.977482 26266672473.678280 0.000000	2296710236.967203 3410859665.052729 0.000000	-7590105215.664038 97059329396.674835 0.000000	-46592580927.975563 94339704658.847107 0.000000	-11416394909.622444 54892833271.633133 0.000000	-47676946595.533562 -9254311130.585707 0.000000	-82944218523.613724 19871099380.949070 0.000000	33814217528.936142 76188109135.317627 0.000000	-27254713663.902885 17175704361.340616 0.000000	20327759686.974754 22751963874.652355 0.000000	-74344470288.390915 211630137792.047485 0.000000	-2053464411.957245 90360620207.785568 0.000000	-9811341013.634792 33863291182.442352 0.000000	67925422384.879242 62909860442.156311 0.000000	-14961238659.055868 -181868396.783169 0.000000	75139363272.906616 28757696697.172363 0.000000	148682593030.736420 105780970817.780014 0.000000	-42283063293.859955 1345743453.766941 0.000000	-32147916940.622551 59290579185.511047 0.000000	100027034253.729080 132171612340.741440 0.000000	4202606786.281848 10349003023.206734 0.000000	-20293083102.868916 26926295280.921551 0.000000	-23121944188.058224 6758098796.684293 0.000000	7029777789.669168 8352051483.869734 0.000000	83107013326.939926 79121580866.991821 0.000000	-69467628101.017502 46977598930.237099 0.000000	49687282263.067535 157416166224.491058 0.000000	-2108589957.025833 20621241895.196495 0.000000	-100792330973.292801 126814136294.024582 0.000000	13122437680.537178 5329995896.718133 0.000000	-4992281596.179830 77362198943.474442 0.000000	-5024904143.946583 4127980460.083245 0.000000	-26273966367.803501 21137363191.122387 0.000000	20967753740.170536 2032333268.552575 0.000000	10614819008.637615 29558646146.669731 0.000000	-2190047017.840014 11920978081.088007 0.000000	7074964409.697327 69261348018.078979 0.000000	-24585099963.277763 28647478724.963509 0.000000	-17506577028.212143 75742203456.839294 0.000000	-9039915215.280876 66613677492.839935 0.000000	-93691454312.483383 63818895515.720070 0.000000	8505494060.472097 23377754715.068623 0.000000	35715196308.002464 16866511337.297274 0.000000	-63622896396.389290 13527541850.673641 0.000000	38899273375.881378 105875549457.026184 0.000000	-90401560129.855209 103818509455.765915 0.000000	12114045653.961512 174005971305.252075 0.000000	615224370.234966 -137011781.762205 0.000000	-4831757464.877481 5163372788.208987 0.000000	4004651991.426664 90441522239.097153 0.000000	6260468368.061331 1464296403.025154 0.000000	-6477883260.388756 71841296869.434814 0.000000	58950883532.508965 107878865923.175690 0.000000	3380296891.001354 116418304065.248337 0.000000	-101638259908.024857 133674521061.989304 0.000000	-105351397403.500320 77911992566.264374 0.000000	20616085768.821205 14039460825.250942 0.000000	-31098559695.703331 82009243734.988800 0.000000	22284242440.361233 8845388767.268593 0.000000	-67241952747.498833 773550743.562102 0.000000	29714058020.284180 39501940028.187485 0.000000	64502089639.352425 22237222709.168388 0.000000	-26398395702.403271 157825051166.541504 0.000000	45824977765.269226 40044404227.061745 0.000000	8747438772.383343 26279178676.027790 0.000000	49385181543.931252 37016968516.263138 0.000000	-29817852449.926086 30323234619.311470 0.000000	81203127368.971039 14999610989.140030 0.000000	-27452574201.214569 5453517313.994822 0.000000	36276427735.230911 87214303679.011688 0.000000	-46571160602.499290 108612773524.389679 0.000000	24225702597.619591 7959523085.958771 0.000000	65366317242.102875 64761624896.767708 0.000000	-933483937.372176 41366206169.994507 0.000000	2438062719.574986 56490604512.045128 0.000000	86223165676.541534 35422388987.323296 0.000000	-41888512078.682587 101141735451.674561 0.000000	-14992642403.234451 55874823941.397049 0.000000	-40483806914.406387 17889999070.237953 0.000000	7751325357.538841 9679107986.810099 0.000000	357017284.608360 157300871.849341 0.000000	-5472095348.942064 4598846446.429590 0.000000	-42584360231.773331 14343942671.346493 0.000000	-86603223845.713562 143879344288.514587 0.000000	11706801341.538422 15891955390.750923 0.000000	-122083596555.156464 36677299481.745171 0.000000	37647034997.965141 142300175649.217773 0.000000	37542091049.885727 14732681855.508059 0.000000	-668327552.083057 864727599.533989 0.000000	21858212082.726295 126739401017.372162 0.000000	53986935178.186600 7184408986.760315 0.000000	-31643744726.950272 13897242378.729431 0.000000	70941637965.809891 71329311699.411530 0.000000	81836593134.249786 68157050900.166809 0.000000	50051847.953705 2750581178.928144 0.000000	-7411231576.468039 3270153290.077267 0.000000	-124673758412.932175 140991293409.785645 0.000000	92316636254.542221 58004674860.752388 0.000000	-70627181038.821503 160201471114.398438 0.000000	668332177.005885 1905614957.528712 0.000000	-30684337122.865017 53546441685.133957 0.000000	-13621364740.602562 19656865427.183022 0.000000	36284793663.192177 84440706707.928879 0.000000	19209362745.637207 96169934049.979919 0.000000	52557387001.020668 30871671488.820816 0.000000	32793602990.377869 103041226176.369354 0.000000	46849166181.968941 36471843884.336472 0.000000	46332484988.650742 153400583947.871033 0.000000	-2480369262.127457 2963048185.473886 0.000000	-48362151604.142029 31416823861.979641 0.000000	25830705532.276508 73275651469.848160 0.000000	195581005.363098 12220687.807155 0.000000	11745185255.113943 9937977846.881460 0.000000	-994883242.988063 3374581780.620542 0.000000	-17786327776.006035 162698765816.799622 0.000000	45944529884.079956 196446211326.898682 0.000000	-7320449304.036716 9829725825.085327 0.000000	-61701426167.085052 8741661275.594509 0.000000	-30953377047.185333 19498054134.893223 0.000000	-3954864399.421276 77333355061.177505 0.000000	10648241053.269741 57794845822.899147 0.000000	-11456410025.042183 43814253231.590515 0.000000	-22137102013.442352 8189339176.140461 0.000000	-10534505697.493313 52030056647.657089 0.000000	2019707369.115772 62266182783.411659 0.000000	15678799352.471680 77199868069.249237 0.000000	-4190167078.450292 15494349302.260593 0.000000	42435538424.311493 104730064712.542221 0.000000	20556251524.826374 2890461114.708164 0.000000	-103464558374.220505 35243183608.128624 0.000000	8552099628.129316 31907077795.005516 0.000000	-37353709141.444748 13878034910.034010 0.000000	35993978791.059265 51207821534.540642 0.000000	-45702615962.466354 77276857571.938904 0.000000	20699318857.393406 770030952.143791 0.000000	-71681329848.062057 68679365991.538971 0.000000	49125626.827766 10412101339.625088 0.000000	19000976141.563644 41522675184.619492 0.000000	-42109552485.426277 31677543869.691143 0.000000	27745198205.522308 34204745532.382889 0.000000	57561348712.282455 58230917770.853867 0.000000	-8340545047.512023 531485986.627129 0.000000	-82455180233.715088 21847628658.170277 0.000000	18604697143.886475 29749977618.484707 0.000000	9411359819.741959 99204525674.344574 0.000000	-1567857121.861782 177272804.966491 0.000000	16754755362.443546 13140860648.642635 0.000000	33128469002.739990 66544442731.923027 0.000000	-32485031933.308952 17640909980.126358 0.000000	-54787062665.409767 82044769186.191879 0.000000	-40568197582.095779 52559928976.337471 0.000000	12220372105.182121 132794833395.654388 0.000000	2936224407.698694 59437547766.756187 0.000000	27936987934.415154 59967088917.479233 0.000000	-91559948934.952759 -9055116515.938744 0.000000	-38350032149.216637 123505793784.229477 0.000000	-157819606735.771515 76645067552.487549 0.000000	-47731716567.725471 28478593386.778770 0.000000	-47735746387.182526 50649508197.534172 0.000000	-3545563015.062649 7312967323.852654 0.000000	36053717758.648178 82725284414.883514 0.000000	32506612653.101307 112185990488.227707 0.000000	115288240.039933 4440886590.997192 0.000000	-75690668822.579178 77500031593.849609 0.000000	13910674741.581966 15019515858.496700 0.000000	-31915147397.149971 19180629593.749992 0.000000	25733526.885993 83788493767.385345 0.000000	-34057627871.988976 199624341344.171326 0.000000	-60589416980.309593 22646625091.441761 0.000000	65502426292.377731 117952981686.817993 0.000000	-2301007168.049727 5517343434.438105 0.000000	2874295515.217335 58001480723.280792 0.000000	-18444184794.013237 116680395036.771225 0.000000	-13884221178.852026 8025421692.834843 0.000000	-14548628269.199852 4252211628.455241 0.000000	-4104750103.857302 58802342439.342995 0.000000	37247833480.120338 94018821241.142776 0.000000	21156845137.190384 28568766513.270241 0.000000	-35080623068.875061 19653500808.266132 0.000000	-2821940636.993134 1805054629.127705 0.000000	-18583696217.345612 167355973410.965179 0.000000	15063705262.217777 3744742321.788915 0.000000	-36486221035.473022 187542896976.005890 0.000000	57677459312.323517 39047206306.862762 0.000000	41918529956.309959 -5822948468.486858 0.000000	-4718973057.159712 5316920890.980161 0.000000	11041980216.898922 28021525871.497738 0.000000	51444120607.441536 38003500992.422371 0.000000	-80040505420.327057 -12951218147.360420 0.000000	-31477414267.765831 59028916271.210335 0.000000	-64125796751.343910 35715445966.652748 0.000000	30235430868.069077 16161801093.205542 0.000000	31862660216.147236 16017358559.951818 0.000000	-19185153591.651375 25937608663.777115 0.000000	-42298334959.305473 14037945799.973293 0.000000	3588750484.239388 227168053883.286377 0.000000	92727956532.441101 53445452573.186119 0.000000	-20655923052.272053 118313941171.085541 0.000000	26724913333.047409 65780641482.057266 0.000000	-10250309168.297312 -2868931230.563881 0.000000	14019431788.870766 164604307019.525909 0.000000	2297103260.545164 221153144.046285 0.000000	747657727.820660 21279480375.465046 0.000000	29344840783.133366 19035038151.093834 0.000000	-1939967706.512942 36739140398.210403 0.000000	-2542335437.814314 538838862.025416 0.000000	56153040522.476234 140856033472.398865 0.000000	79506820817.502274 72877941867.048050 0.000000	-21096573146.842716 55869915013.694206 0.000000	2298760736.906106 7561864506.743980 0.000000	854231898.585672 450858604.223099 0.000000	-79948442220.711151 118211188554.510849 0.000000	13459862523.264671 24358233143.257359 0.000000	80879928553.192581 -8795003557.132057 0.000000	-88167399167.527908 61591238297.532310 0.000000	-26741543109.269348 160352919461.894989 0.000000	-22613873398.205566 25777026002.580601 0.000000	101561259891.112350 140065261637.094086 0.000000	-11525174525.214136 9256496652.457815 0.000000	-10563716953.028423 56717680022.655159 0.000000	43972424022.253555 47577665582.766273 0.000000	60246226174.457481 94794998122.990341 0.000000	-32030891651.863983 84292992235.080292 0.000000	58863952901.056870 103327415646.796036 0.000000	-28875766036.331062 3517489196.110676 0.000000	-2177442804.929018 1546828341.159451 0.000000	8255371326.193010 20887833860.469891 0.000000	-14352743204.636328 46888860983.861969 0.000000	-8445261856.671715 1222798447.926331 0.000000	19512081337.466431 8928443850.872578 0.000000	-35218184856.450920 50720966972.962509 0.000000	-46012572303.130295 53059002753.225975 0.000000	22067882961.088539 34090962942.951874 0.000000	13358539982.869097 44994044770.048050 0.000000	-60585896167.216469 44813543359.869514 0.000000	5274959125.055893 4416960288.781569 0.000000	-16334369534.863756 -4426270560.700860 0.000000	31158455793.236710 29373055811.020313 0.000000	157709024141.031097 16945756092.952454 0.000000	-50870590466.226700 4414770285.125549 0.000000	-851762656.221389 3543125514.716969 0.000000	-21898375369.822876 15299664049.919018 0.000000	-15607180117.447527 975975125.973427 0.000000	9500637433.045435 89863286370.201157 0.000000	-83094082536.402405 27956604034.733170 0.000000	102207805040.477814 108740128757.517395 0.000000	759817410.498898 21618100748.015808 0.000000	-20955778704.351208 38608025477.083817 0.000000	-10475007518.362940 4308316952.642743 0.000000	-21691323364.534664 12416462063.710041 0.000000	5778142262.054250 9476043778.869953 0.000000	-8885405982.447887 86069528048.266418 0.000000	36182856999.523338 956952101.013994 0.000000	-36989366054.550873 33675603019.204132 0.000000	26219124985.593292 223617688245.064453 0.000000	-26016423934.793621 1329963000.731960 0.000000	-37714277331.903320 30030569413.211540 0.000000	-60958992738.878242 9174156079.052050 0.000000	-19546319736.634666 5848013303.738466 0.000000	118089366256.737671 -6289525856.136749 0.000000	-148709021334.941101 82786034290.041245 0.000000	-11081242752.379410 48446709960.601173 0.000000	2542871909.358006 2231900162.470779 0.000000	-37050180509.358620 148556850514.112274 0.000000	-26940426229.809376 17011490529.192005 0.000000	-58382722812.993896 133952695813.585388 0.000000	9369265591.744080 9646289172.498152 0.000000	36489366252.452759 13652606347.469633 0.000000	29804124235.033775 76791351902.429367 0.000000	30075813504.708797 3064710374.906841 0.000000	19792101474.574841 18667334045.366081 0.000000	-160317245.547125 113552231594.688156 0.000000	-23530304821.213840 18333041757.054115 0.000000	-8529990300.510543 7979633790.210733 0.000000	93052985253.149582 55292365300.422119 0.000000	80006304060.493057 47914705966.547478 0.000000	-53793144504.356598 28836064809.785431 0.000000	-3979786112.499943 27470974704.239323 0.000000	-11557124730.382345 1798806881.133424 0.000000	41745593777.512230 25317630720.432804 0.000000	-43202407149.292572 67147411430.639557 0.000000	-58774058744.867584 19673592688.582829 0.000000	36761784809.967407 15463229996.727299 0.000000	67895900525.417603 124441849221.983826 0.000000	-67371118336.604889 132053445337.861694 0.000000	581153915.553234 36831780.363830 0.000000	2798019468.043041 2788106374.747871 0.000000	-114548730542.813797 98664886687.739777 0.000000	50627497433.768150 -7535236372.190724 0.000000	-17422018964.241199 34994053319.050911 0.000000	45606117987.317978 202560111692.188080 0.000000	-88360853911.565506 55148505349.940498 0.000000	-929419793.095343 142720560051.974518 0.000000	123490039866.610687 37450945072.853004 0.000000	-5648940246.593707 11926540481.796125 0.000000	29381165549.659691 34858991245.045486 0.000000	-51071792584.545364 64632546069.420868 0.000000	-37058585898.641907 39470018555.580780 0.000000	-19286530738.492188 50590004935.101402 0.000000	10093631083.710510 68245059508.622826 0.000000	80822202752.523163 147683953767.649445 0.000000	13163075940.104555 5697505574.200751 0.000000	122581166102.066391 30486429540.493587 0.000000	-45896691079.287971 11973971273.322792 0.000000	791690299.292651 51362292542.038490 0.000000	1798762571.394769 1283271330.224481 0.000000	-4970543547.577541 66444059273.652908 0.000000	20290390332.794235 16225280489.945721 0.000000	11046796246.484097 55171954694.956619 0.000000	-6584103230.509336 12378540080.362123 0.000000	-50011250704.981590 32249027318.892372 0.000000	49128698531.004501 58813707958.380791 0.000000	6180868655.319686 118058334.790953 0.000000	1075744635.671042 865038338.221477 0.000000	24291956925.011894 121905719285.222549 0.000000	-37150005439.512070 18002339037.616695 0.000000	1271731552.529387 36905473130.409225 0.000000	-17526615787.916985 16594492631.087341 0.000000	83820463805.212646 75780230081.436859 0.000000	75720873357.234314 139145553611.587219 0.000000	94056387935.425797 22809783891.602566 0.000000	-55089215712.691887 60971286221.813675 0.000000	122619508345.843079 27725211727.908051 0.000000	181982413879.017212 -5364073990.393124 0.000000	7910812356.189178 93203513200.333328 0.000000	-44058878562.282013 65055239711.084824 0.000000	-18474450742.119537 51878963559.601089 0.000000	7347970087.779644 25706585447.315907 0.000000	-90187190022.236343 -4632240654.482466 0.000000	-8350043047.733975 26888173312.071854 0.000000	1445701098.065701 993236928.352927 0.000000	-6415963277.868778 59502023755.682114 0.000000	5404596880.188369 2565059291.823141 0.000000	24109190747.214561 53708640649.357323 0.000000	5687345425.012653 -566146828.506492 0.000000	-42150303486.823921 83037889432.146835 0.000000	5680732396.554785 2202514065.853285 0.000000	-7098963507.865232 -1353917385.058568 0.000000	-14570344543.263287 72783235376.444183 0.000000	1292901694.284077 93387697238.266571 0.000000	-27203592491.614765 5711060272.928982 0.000000	-50381003312.517136 93095493909.934814 0.000000	-62158666283.027367 79923565316.027390 0.000000	67812390185.483810 93569294857.508957 0.000000	49738856429.513397 44169803258.000504 0.000000	-28439637364.491589 27419136034.653698 0.000000	1029838115.879116 40805666267.939247 0.000000	17974783657.102268 -2054498390.447854 0.000000	803425370.594864 249337281.348179 0.000000	21602493395.205524 6019552780.062170 0.000000	-34266053282.943298 36600064979.928047 0.000000	-48819259683.807716 3632899759.942094 0.000000	30379162783.155792 -612450308.893840 0.000000	-6622419543.794105 2020845082.343181 0.000000	4423506569.023649 1400413849.347391 0.000000	-12004950058.226931 34513420295.751541 0.000000	-23461026228.220764 91041666970.694992 0.000000	64886792790.995758 92554121642.543243 0.000000	-22981243683.843628 66020421770.169579 0.000000	8742233605.656445 60047891608.874207 0.000000	20752809659.688488 28305450304.664917 0.000000	21611127793.298199 36331226629.396652 0.000000	5703944402.878823 52904414367.915520 0.000000	3891922311.094073 3822006081.263600 0.000000	-16919334752.364136 15969024781.396072 0.000000	-28025274415.607773 22118156103.697853 0.000000	7251527066.137039 16808424692.335890 0.000000	-66603559891.188316 49994527868.999840 0.000000	147567131673.421448 81354951417.519165 0.000000	19238710265.280724 28727101671.765694 0.000000	-28434733312.181244 109002819337.528732 0.000000	32176895708.782127 12321468328.080547 0.000000	-33105197700.892365 31822341107.650696 0.000000	615303764.716485 2634142179.278098 0.000000	-16612027888.036821 6206735073.129618 0.000000	-11050882705.598829 9578880958.245804 0.000000	960609625.574389 4488419834.819207 0.000000	-2119381851.089032 1266692384.371199 0.000000	-9124776172.064617 15133898089.353703 0.000000	-55768321527.274063 13717160348.491421 0.000000	-14231586099.642826 990690708.285682 0.000000	359991871.303318 722574271.520561 0.000000	39996224063.116028 65182177893.078499 0.000000	-30322448346.508617 -841319976.341311 0.000000	5074039295.441471 3512469447.616993 0.000000	76668057173.680176 -746189718.061611 0.000000	66698786780.831779 11451859049.594011 0.000000	-29726452885.998909 38094292561.712540 0.000000	-1769308113.406250 2350001595.996123 0.000000	-1769283244.888256 -420835584.907490 0.000000	56963543761.137009 45879857148.798187 0.000000	18609504251.259945 32521855826.910286 0.000000	339891656.274232 1085004353.570478 0.000000	-51018632157.845695 3001606354.917559 0.000000	18921362749.212780 -4087998561.985931 0.000000	23305409766.817829 24636433214.782635 0.000000	-14600198638.938961 36460726560.389420 0.000000	-27105407015.538651 74149261799.377350 0.000000	34244096207.220993 13152679666.313538 0.000000	46726684461.490715 21212249674.544651 0.000000	-16640962562.077011 5705813506.203485 0.000000	-4067286864.477250 6859202801.756412 0.000000	-35640278518.537605 56528601803.444756 0.000000	35620625215.340813 5453070622.262772 0.000000	-3162555150.487614 35244620459.635445 0.000000	12529373515.497988 24366319130.532360 0.000000	32923307190.654655 24252117963.676079 0.000000	-15436968242.984636 52897071344.782715 0.000000	-8223753319.311613 7743748412.920433 0.000000	2574688777.246917 1412981559.576005 0.000000	19634293794.148464 22949181489.711651 0.000000	-11587220443.390015 56643847199.032928 0.000000	145227965171.440491 171374445705.854218 0.000000	-26281759381.600498 18363571181.983322 0.000000	-25837551198.203724 -7087800558.900429 0.000000	8058697274.039227 4130256326.437518 0.000000	1601019892.844849 86792934287.451935 0.000000	-21251793049.563026 155392438945.600311 0.000000	-51348438546.843369 -13857908401.235327 0.000000	-359860401.737372 2048389488.781676 0.000000	5770037485.556716 12939245855.110556 0.000000	-73570291148.972824 146140695978.882507 0.000000	-110630398170.678711 102634151330.195343 0.000000	1899028057.886294 22295339463.426773 0.000000	35183183581.485603 -1020239385.490629 0.000000	71660800237.802887 24242738268.715160 0.000000	6566486724.369421 6468595583.796926 0.000000	-11127315683.663986 56801266224.866112 0.000000	-19347744807.592892 33716348529.451065 0.000000	86456549594.723770 75963473748.876022 0.000000	-4361414126.124723 4752774766.381079 0.000000	29946992937.334030 34020090397.292225 0.000000	8914512861.970303 9752316612.796890 0.000000	16672546745.370865 6858543541.254619 0.000000	52234565451.505150 68232727080.330658 0.000000	-24219586250.810303 29058936363.943954 0.000000	68779371354.742157 41080418046.152565 0.000000	8934213499.343090 12829409877.327560 0.000000	-72963973330.755112 135722413821.619598 0.000000	-38879612195.812675 11228681300.216137 0.000000	70627761853.926056 14606504591.463974 0.000000	-17767257571.669353 51456529829.900352 0.000000	51822069728.924911 18801447842.469322 0.000000	4431058750.978061 13022841116.276342 0.000000	-3392062506.571692 12066037006.950686 0.000000	-3287026104.126838 46355991997.759918 0.000000	-30962205500.386200 26293460107.059982 0.000000	-27577344433.096924 15650152972.321287 0.000000	-6657489002.018057 34839693753.814278 0.000000	-98346452888.385406 53520537520.916428 0.000000	-65119015.910489 30185568848.297447 0.000000	-91897162258.013748 34014209821.113098 0.000000	6983162111.377226 9443742002.055044 0.000000	-6779380889.012732 21705995630.429714 0.000000	-9696761681.697269 13019205280.802296 0.000000	272794543.577895 277570154.963302 0.000000	-27556926727.252296 16458729397.721283 0.000000	-17379076249.524494 57028156115.726021 0.000000	-53529065119.695984 56327903463.453629 0.000000	-32703255706.138203 34637597549.540588 0.000000	-20819126589.216679 -469264722.999042 0.000000	6277680365.049767 1225897329.621169 0.000000	10108784908.933481 13246382280.819448 0.000000	-21265790410.088943 29682816386.906010 0.000000	-30350425447.802765 8330466964.879200 0.000000	-8687559080.882311 65007152995.204216 0.000000	7704180060.597144 8196214215.625366 0.000000	4201554244.280688 12998172530.974907 0.000000	35520281540.929543 7511326104.133067 0.000000	-30867005132.006290 43963622852.822212 0.000000	-26469390681.528996 11900074134.603907 0.000000	12856562672.151251 30889604995.296955 0.000000	-27062292942.801170 77611840397.108337 0.000000	-17879816976.041489 109279917509.382065 0.000000	-51740757794.761505 5517080204.783615 0.000000	-54368949622.912689 34461240383.519386 0.000000	-15261018649.616896 58195719790.755814 0.000000	-55986964092.512123 89548790301.757217 0.000000	4528411425.886103 23931843504.603352 0.000000	11061713210.475437 20780874531.014347 0.000000	-3522460022.428686 5692428738.385060 0.000000	-84903190384.325287 41310362092.980255 0.000000	25894760328.296024 23533899250.900150 0.000000	49702808952.478104 18246196890.691193 0.000000	42079093625.452187 12513299875.293913 0.000000	15221470299.875813 43858525123.410370 0.000000	20004840518.255875 23081924777.940353 0.000000	-549980757.462709 16407578141.073811 0.000000	-42807848089.435326 31638509501.978661 0.000000	14226565897.837330 37701936527.526367 0.000000	1318473907.915369 15851082696.401064 0.000000	2443668845.395789 1181206706.585193 0.000000	-53318298086.881569 33136365230.497784 0.000000	17135527356.894175 70427402377.386948 0.000000	-45586800965.523659 16443134207.020050 0.000000	19494534636.128342 51788873910.457306 0.000000	-2979004854.225601 1373198540.591861 0.000000	3466867607.542365 370857821.824895 0.000000	22723048586.097237 32358813569.079498 0.000000	1935658655.756657 50145452282.334305 0.000000	24978526520.979492 20486857386.487942 0.000000	-17110153327.021898 7401113096.163300 0.000000	16795190912.835449 32448346890.441284 0.000000	-25710325069.953667 11112657356.400146 0.000000	-40318007921.569839 74912351902.825089 0.000000	-24069141325.398666 36753519552.915604 0.000000	9474439484.866482 4883430401.953096 0.000000	-3947341405.293181 11186341013.974424 0.000000	26191516652.500175 7877654280.138925 0.000000	7128416251.768181 14630549504.824921 0.000000	51038621753.406189 36263594601.229965 0.000000	-27427974382.891094 13840311453.084396 0.000000	-55104294482.689575 65414068006.692154 0.000000	15152207581.069824 30652994388.960934 0.000000	34809132164.615646 60556653114.308273 0.000000	-6928815371.762309 13310921220.537336 0.000000	-7056655939.341644 15372349886.525955 0.000000	34947760730.896942 36324220261.656425 0.000000	-60932020.224956 533196056.989343 0.000000	-6732489151.747948 43465747789.659035 0.000000	14395490661.275673 36021989662.284332 0.000000	-33732294780.755211 18376188809.118725 0.000000	59957927810.807419 78428580112.637222 0.000000	1065340174.178853 244277846.558196 0.000000	31252650470.915871 17452587958.269272 0.000000	-2508157941.309151 3543006124.914403 0.000000	-29399540884.725277 6732631718.720430 0.000000	-224798288.891051 465985031.974942 0.000000	28428123780.355228 33713223008.523346 0.000000	-7116699845.453627 11071514983.337893 0.000000	2979185598.184810 1396591588.959663 0.000000	-21334106166.875965 15100145056.266602 0.000000	-145386715.859155 3692766320.245554 0.000000	-10096810295.220556 3734745850.245281 0.000000	19381093056.742805 23998020641.838184 0.000000	15574384128.532976 3256447987.281401 0.000000	-10503974259.959099 1534878686.160925 0.000000	-23812520319.640678 11238796211.575941 0.000000	1945541141.039065 -539831934.510767 0.000000	12312520048.763414 28665917830.980644 0.000000	260398243.026791 229059188.137924 0.000000	-7791447597.206491 360998806.207432 0.000000	2259464027.079060 17280891090.720032 0.000000	-20470434358.019855 149204794430.474792 0.000000	-11329669410.970093 33557266156.110359 0.000000	-6099073767.436544 10461363591.790213 0.000000	-34449806516.432800 44103329.643836 0.000000	29214739237.728302 882394577.636934 0.000000	-4680193905.862864 9480569883.747864 0.000000	-3372232563.244731 3164796214.583073 0.000000	45692903255.775833 32281433887.222321 0.000000	-45157759936.891136 22009802786.403656 0.000000	16782931092.942799 20439004299.323399 0.000000	-20439545077.209839 27181542125.188011 0.000000	-2300724811.601708 -24169306.694738 0.000000	18960028205.748356 30379223217.041466 0.000000	-56818031875.405869 73754285376.550125 0.000000	-24561368688.845005 28082044854.780735 0.000000	65229410588.681259 83990204148.314789 0.000000	15225468814.936449 46631653174.621025 0.000000	-6048830698.847290 83473206796.214859 0.000000	-9004551925.078363 26644367934.550205 0.000000	42749359117.049622 26323466800.836601 0.000000	10888968270.919601 429880120.054411 0.000000	-26964896185.385590 21854893254.071144 0.000000	-1569717903.821144 23875594663.036888 0.000000	64511037203.629639 10106440576.770988 0.000000	-43551871252.606133 167798197895.960297 0.000000	15893267769.879404 11813937005.494869 0.000000	-16604654916.024624 50965364888.312386 0.000000	35376565216.696838 6760829126.702717 0.000000	100382841407.743851 -890598444.997660 0.000000	-16157220799.074738 4684093042.413206 0.000000	10866453577.772104 9568347072.572933 0.000000	-20286578001.452911 47963719280.620209 0.000000	32195286485.309284 62227759822.080338 0.000000	-6307690386.763285 3514764745.720331 0.000000	14521483321.284081 3746552694.019773 0.000000	-23082004489.290302 131186705286.431091 0.000000	-17501478612.514366 10854625598.027319 0.000000	28889138300.310600 59491392312.844635 0.000000	46384417557.674728 26467073720.204834 0.000000	5564013038.631612 7609642389.736007 0.000000	-1866924118.467864 3617428861.737084 0.000000	23961723068.672615 22131836705.355782 0.000000	7208998237.151368 3022645635.426266 0.000000	-13051786108.482822 14282776013.813301 0.000000	-201487083.571068 61306415.778931 0.000000	5437569604.312704 2398957163.729729 0.000000	34085745529.718979 36439535910.582108 0.000000	32501657290.214951 63425123431.642090 0.000000	-12739314137.348923 30048308114.209190 0.000000	77427089318.851700 86923813487.223755 0.000000	-36383988347.370239 -950356024.336096 0.000000	29463574938.035076 10333922784.981640 0.000000	22852774225.981480 57418334686.095558 0.000000	-14119486537.517582 19586698124.337124 0.000000	63692977667.112762 4138476838.165767 0.000000	61410427069.508621 75113528027.978592 0.000000	-1167540516.397712 59201372915.040710 0.000000	-12856064107.893444 10022157044.514109 0.000000	43955375479.722748 42748769905.706818 0.000000	5712548141.162289 9635066988.075535 0.000000	-49838163317.337379 65409063840.826508 0.000000	-1237407400.956897 32590322969.567799 0.000000	1945389438.200440 2230915054.784965 0.000000	44131157240.836098 34197436096.852486 0.000000	-3310099474.219602 7160343300.353975 0.000000	2199342161.892601 4453364427.572615 0.000000	-1420502527.643892 12404874152.901762 0.000000	43822281414.550781 12826676044.687035 0.000000	-85444647767.895325 10967942496.482746 0.000000	-12005115418.780882 11696279964.063496 0.000000	42885240814.274452 17510449753.992558 0.000000	-55913254557.685966 104188946749.995209 0.000000	5701210633.836382 50168763474.979988 0.000000	-747054009.359047 890261762.894241 0.000000	47737320813.647285 88276248060.080582 0.000000	6407378513.328888 3910240421.633734 0.000000	41942491561.362686 50564665684.845810 0.000000	-12361064003.447407 47541470779.416512 0.000000	19794590209.343204 86385007615.185013 0.000000	9359323708.260370 6481468834.694462 0.000000	-11046636196.449894 11750314169.152962 0.000000	12649600590.767715 6324608015.745203 0.000000	3656885104.045609 25035546200.160049 0.000000	-29085852273.451363 35766183695.648262 0.000000	6581446181.891838 62000385528.656448 0.000000	-29944231467.631733 36499609332.673859 0.000000	-20152379583.308826 31019996451.007420 0.000000	44759841692.496346 55705240741.608162 0.000000	47967568666.850693 10402405908.610550 0.000000	1511031332.892646 21578973656.828247 0.000000	-1511742277.620382 590794209.164463 0.000000	52212658447.369904 12760772704.307711 0.000000	-994876737.105154 603349548.594010 0.000000	495921214.530118 13948324780.410337 0.000000	35284102950.661316 30147653813.902611 0.000000	-5898095008.298779 18129396237.206375 0.000000	21837816277.932831 43317729644.503128 0.000000	33987257200.288040 33442856719.083420 0.000000	-2552846161.265634 1038068871.004015 0.000000	-1926411.281709 182219970.323020 0.000000	11770915584.250898 -1618436763.149274 0.000000	68471042981.773865 78457032306.573761 0.000000	59442395205.231804 54041544520.161263 0.000000	27348557508.550022 75148317468.622284 0.000000	9127621093.917685 7339772284.804371 0.000000	-37626116149.873749 30995851712.539059 0.000000	-23870750872.451118 56192122552.635368 0.000000	22720577985.182945 35121747461.021469 0.000000	-11888165186.500282 -2819604251.247591 0.000000	-18273934378.515839 74349755584.582047 0.000000	-20208655794.184441 24003626033.052876 0.000000	30608787193.051643 51443883549.309204 0.000000	8924476781.928871 14184755029.265139 0.000000	-13151205597.221380 9383410654.162258 0.000000	-4652625651.271902 8055478538.197042 0.000000	70726044619.619812 14048188563.081051 0.000000	18659153306.858727 134957437663.862320 0.000000	-5056803838.527871 2970521564.714403 0.000000	-52578958613.325195 121457036556.703873 0.000000	3069406057.577041 10692797185.673351 0.000000	-78412608917.565445 93570030474.568222 0.000000	3180284867.967627 887426103.501595 0.000000	-17324885373.490192 14415732139.819189 0.000000	29429696097.404518 23203783539.935051 0.000000	4857820929.226591 15754396054.892017 0.000000	45979347854.738937 9986764667.720186 0.000000	-16328385174.581734 36663230375.799858 0.000000	810219160.249702 859652195.899264 0.000000	83851049845.287247 73047485977.859100 0.000000	-41427907852.159676 36840315549.624710 0.000000	68574178655.280594 164618228724.811401 0.000000	47243837328.361687 366034675.544575 0.000000	-31242781042.515610 34156231787.763878 0.000000	62322696048.915710 72146372682.921936 0.000000	-35203853126.798347 63164811904.936951 0.000000	-17342343549.221531 11656903772.443438 0.000000	62458751676.067116 114711590251.161774 0.000000	-75333673283.065231 74033252624.075943 0.000000	-3189295789.982182 17779826866.863026 0.000000	28292788586.483963 9112111158.855797 0.000000	-55677187656.538536 59867723976.424416 0.000000	14013125884.929771 22365287130.667206 0.000000	-47571164194.649025 60144138133.176582 0.000000	162884005.996972 2828495460.986416 0.000000	-22169447105.056374 5838980125.353435 0.000000	69142331877.784790 28524353788.155945 0.000000	-49866952.535493 20211684.395749 0.000000	-133559103.518928 8905504373.768703 0.000000	-6051965104.170126 14038654046.490402 0.000000	-2280532897.699184 15140926715.232368 0.000000	-25949812940.546322 5159639472.649703 0.000000	-3884392257.842049 4275225580.937105 0.000000	-31355554159.325504 16110036094.775696 0.000000	2306457228.745356 4096306965.518086 0.000000	23439738880.668102 85173223818.150604 0.000000	-46551483191.385895 16132716065.606686 0.000000	-8547048467.710877 4069181104.402003 0.000000	-3075950013.731604 11632728776.167934 0.000000	22131119713.562378 31307745080.749874 0.000000	-6809563003.281531 228640588.180241 0.000000	25625751523.418201 16066325503.056973 0.000000	-4116541464.451035 15295614597.495621 0.000000	14181804678.457907 6384016417.463501 0.000000	-4365079552.378667 6316543146.365367 0.000000	93019405380.516586 140185097526.735901 0.000000	-2259082337.096976 4886575318.940793 0.000000	-33492546391.295620 7745621931.557247 0.000000	-49833496892.830978 68172517381.086220 0.000000	-68502609851.634232 76590215439.270477 0.000000	1730473115.212205 15310803436.375290 0.000000	-77790530363.042099 71281020763.964722 0.000000	-21558787182.326782 9815224382.672678 0.000000	-24091051967.715523 67014521650.809952 0.000000	-12131141157.750664 33187462726.166271 0.000000	2177763460.357112 1224290253.271641 0.000000	958359420.839380 1728305202.949143 0.000000	-60463156046.339302 86796270288.133804 0.000000	-24740446796.046631 16186693820.366013 0.000000	24677041066.008633 11227677308.849075 0.000000	-1735357513.986025 631368679.614266 0.000000	19422347775.177189 26429616848.310402 0.000000	-31887094053.507629 43065851167.415634 0.000000	-44528788898.725143 39503084273.032379 0.000000	-18249600997.355438 38105118580.005142 0.000000	-18242470204.137943 40873285143.686043 0.000000	-2457382473.854638 3165759085.121819 0.000000	-3528512895.054910 16563299338.560770 0.000000	-8487752047.538363 -2284289957.571747 0.000000	-191094574.054188 2721891687.536287 0.000000	29149433877.272884 23085019670.313686 0.000000	-31493582389.903893 17031675441.097340 0.000000	-57122882460.495041 25071346644.669289 0.000000	-73691196845.358551 73255309458.898010 0.000000	8353884323.092091 17681741502.719475 0.000000	-45021013126.955368 23827680739.101345 0.000000	-53358933665.674507 87164581196.694473 0.000000	3499039287.267829 16602329855.582075 0.000000	-4673676320.776495 4128471614.640235 0.000000	12586588283.321579 44207940315.213875 0.000000	22846966863.764687 10793366712.985889 0.000000	5770165183.217994 15713251743.232752 0.000000	-37094568504.106956 16583335878.573872 0.000000	60278752814.791679 19239894196.679485 0.000000	11745264029.533138 7169258590.050751 0.000000	-10244811184.876446 34326604917.544262 0.000000	44131039037.595016 36971480016.657944 0.000000	-22871107837.999989 24492479934.078693 0.000000	-24706064697.997112 19704789012.497936 0.000000	1830894171.509260 2202983552.823218 0.000000	1877555965.364535 11290719171.976137 0.000000	-3909084437.691187 23044601308.929924 0.000000	22571467820.915630 15703167549.324570 0.000000	24689728661.619724 17207565489.971935 0.000000	1317731083.547525 1976171934.190000 0.000000	-1378193721.571734 1327848847.829771 0.000000	8026265170.668966 35234149746.342361 0.000000	-1924201308.673739 6308659653.016030 0.000000	-14216184794.216602 31052077997.675747 0.000000	-23147987022.300812 19641051969.045368 0.000000	7058998324.867497 4989938332.493856 0.000000	29919951469.105530 28475243027.075539 0.000000	-5448036984.756817 28615775642.760841 0.000000	2897669283.286798 35200067147.755707 0.000000	-857508738.724944 1167835219.826596 0.000000	2459066998.242532 4335227456.851097 0.000000	-45313249629.764038 52695701286.220665 0.000000	-39585905202.685913 66492958001.770462 0.000000	5721150588.128852 16565817655.607836 0.000000	19597047797.426266 27043759312.563274 0.000000	-14801362921.110083 61686785868.279518 0.000000	12810156920.233204 25418637757.828491 0.000000	-4382241465.677896 24216773577.577503 0.000000	-17190006613.008499 1574588739.684474 0.000000	20087138654.553967 -967732728.873133 0.000000	2217245968.245977 -170965199.755556 0.000000	1685368291.348526 5032555995.972468 0.000000	-532192492.037993 7974944228.045756 0.000000	-28370160820.057861 53874123095.088837 0.000000	-3825186618.595644 2655039543.357008 0.000000	9765803939.136383 4704534120.308968 0.000000	5935296919.575146 10128319835.062773 0.000000	-2300965778.503740 2746737392.977696 0.000000	-26480038239.334213 100189307025.566757 0.000000	42008008989.841301 96349377937.069946 0.000000	-35183566533.813614 3790764328.159758 0.000000	-24068108689.937531 33976233215.319973 0.000000	-9249260573.441059 4160396249.178728 0.000000	-3076542637.795660 8860191070.754244 0.000000	-5290938544.942308 2490066719.443991 0.000000	1198890074.236051 1333720511.981272 0.000000	-50123708958.497223 93077009581.255524 0.000000	-19038763210.872452 -5572167565.954387 0.000000	-18726825449.739113 12685350419.621698 0.000000	32582734244.908184 61829631989.408142 0.000000	9350508343.754015 13273524276.633831 0.000000	9344940762.583698 10498318404.489290 0.000000	163070912.393334 57579197.268932 0.000000	-160112601.074974 212676391.767615 0.000000	-75249729432.877472 106637398880.328979 0.000000	25896944712.220638 20761097186.612621 0.000000	-63096426366.065613 14680861022.180820 0.000000	5210528360.537937 49488555196.714569 0.000000	-92205679.684604 773365401.888332 0.000000	33498457481.542503 22994979000.523067 0.000000	10107379988.366941 25361871447.043060 0.000000	-20719232288.241863 8724149363.812830 0.000000	-5414185535.680041 -142558453.671650 0.000000	70984946902.505676 85551941363.207825 0.000000	625109250.411551 40455095602.179008 0.000000	-4838459917.361465 2387197142.188311 0.000000	-461356872.703862 333754367.641925 0.000000	-1740411461.688777 3292440902.754519 0.000000	19731178437.630829 25256052236.029640 0.000000	4360932634.719522 7201334336.098495 0.000000	6903211930.262506 26123924881.738846 0.000000	31606976243.346443 23075732474.002930 0.000000	18959690687.415344 24452367162.156063 0.000000	-2538565612.840652 11436457974.736200 0.000000	-488604699.662461 2785881531.016479 0.000000	1739220157.606426 2405046823.246923 0.000000	-36724411361.892822 37625635125.159866 0.000000	-25625085663.620926 6096452591.661442 0.000000	2199547430.777280 1682709049.635078 0.000000	242778985.309901 21898917167.914265 0.000000	27302027931.877289 5752602896.865824 0.000000	6079123326.220600 5704224427.187450 0.000000	-6078313537.581090 16461039898.395933 0.000000	890024242.733512 22193349161.861774 0.000000	358005388.527819 189982069.760543 0.000000	-532966580.581384 159249081.369208 0.000000	30327881767.386341 20094433736.536205 0.000000	-15231495836.084480 13035482578.742050 0.000000	45557332276.382599 29223093426.132725 0.000000	-244215282.702699 270331308.571851 0.000000	-21657356268.491875 37745746409.974304 0.000000	-5049306203.124380 12981409034.425594 0.000000	5282037534.324648 4203257162.138772 0.000000	-17528260911.989761 5597840633.267360 0.000000	11008133919.683817 9805079058.473450 0.000000	-1386738915.602170 1898108193.825284 0.000000	26113451551.736206 33937953622.578629 0.000000	-8698077709.468834 1244933401.911947 0.000000	-191023716.833298 -49467626.061803 0.000000	-1350476961.344819 2906573641.962691 0.000000	1350598356.898623 19264779607.577873 0.000000	14053600724.489372 91151382548.714920 0.000000	34031225857.831123 50224477415.557434 0.000000	18318978609.706879 49196791641.360596 0.000000	-57891997849.622406 65618457695.920074 0.000000	3143696194.694963 12457546453.378902 0.000000	-53872713238.848427 57134862725.532158 0.000000	19198199216.079746 6086962038.607608 0.000000	3550884138.384209 13859565576.300091 0.000000	-3550498756.403670 8308867779.322589 0.000000	28064962424.298721 19282988552.301952 0.000000	-2259486569.002926 21358875880.906559 0.000000	2078578164.025125 30680806628.359474 0.000000	-34126113368.985260 88391876734.848190 0.000000	-29733393205.547749 25532146782.762131 0.000000	17930159780.642178 21475184311.546535 0.000000	-3893521995.925864 2356822802.977868 0.000000	2816282055.351570 10627796178.143476 0.000000	1095544995.634101 701359706.749311 0.000000	-3909153390.373756 10839467807.869141 0.000000	38386413678.763550 -9897110015.381893 0.000000	1128810938.878140 11764569438.155010 0.000000	-39518419276.362885 20299517208.020645 0.000000	5925612988.974176 20472866969.495419 0.000000	5926514415.781245 -1694504164.483682 0.000000	6505027767.261585 9664103105.108240 0.000000	-5860938292.350139 11970220954.498415 0.000000	-640360524.507440 532179195.593688 0.000000	-3751659996.577297 3176068931.564425 0.000000	8799275878.959049 6005934535.940141 0.000000	11677894084.156954 31484243351.379936 0.000000	32485537984.997574 20197465986.596512 0.000000	-1395668890.353197 287483967.188470 0.000000	-12294585116.376581 -1035454977.549912 0.000000	-3371260463.109764 394995146.895478 0.000000	-3211197634.385386 12445082552.500574 0.000000	8434819446.296122 3101270308.504061 0.000000	-723977936.848104 40872000091.844933 0.000000	1783216343.346471 1333675427.286595 0.000000	36289667988.067276 36150218244.441040 0.000000	-335493441.055537 340086197.453971 0.000000	2648482395.092865 28663959223.912292 0.000000	14614457150.866753 8986128401.669819 0.000000	850591401.619925 11104950.762325 0.000000	-11384103793.495201 2375510693.039225 0.000000	14747671600.624365 11960562935.075478 0.000000	-1897405179.783094 2091585444.538356 0.000000	1023546178.166414 529708333.603120 0.000000	-27011272165.893074 15204121225.666681 0.000000	9303453904.258698 5762895652.001277 0.000000	-2285484017.442714 2024819714.960529 0.000000	-11592833552.848028 18430949354.112549 0.000000	15040687040.947910 13613650438.968475 0.000000	-15044618269.998241 8556522957.112576 0.000000	-9766025754.277983 17462616046.762665 0.000000	28805434361.663513 23973516830.371239 0.000000	1395598106.115308 2483001580.094366 0.000000	5079900640.120535 20876326436.573906 0.000000	9453599002.881289 8934145051.823315 0.000000	488640339.466439 -15112489.639543 0.000000	-14619686529.635252 23039970251.538376 0.000000	-16013096165.653946 1931781101.983792 0.000000	27755448899.697437 43386053364.449821 0.000000	-563534258.588768 9594766116.867687 0.000000	-6153701217.113534 3181449853.742112 0.000000	723215606.345904 -109430216.380447 0.000000	10081474893.862553 2398038843.819211 0.000000	-3255684084.480762 1955524532.143787 0.000000	19704822788.865253 1622914852.592281 0.000000	-10156484649.757839 16365261212.523506 0.000000	-12808373534.426931 6130254447.676275 0.000000	8755263221.582981 6610325352.520537 0.000000	-21609806860.771519 10401409474.306494 0.000000	6298939215.055516 8023706770.641293 0.000000	-14054209451.028265 5696317597.515544 0.000000	402085137.877755 102374391.963212 0.000000	7890090977.687528 14008962154.196100 0.000000	-12115076825.442738 25449059161.178940 0.000000	-63321790779.615387 24171118412.191879 0.000000	-2896441073.306722 4413143697.131143 0.000000	5511148607.582351 4242151028.449739 0.000000	-18322789531.770016 68724596847.718628 0.000000	-5693356190.987371 24593695566.442291 0.000000	37008294913.051071 2639556451.928759 0.000000	25354854587.106304 57445701233.383842 0.000000	-16067517172.271809 13262827934.075260 0.000000	3370607629.679981 22175700589.642353 0.000000	12100823436.638897 4994994957.582947 0.000000	9408340648.575027 10646051622.680811 0.000000	-6662871422.515346 1745048881.146265 0.000000	-45817469825.492226 81545832529.298798 0.000000	-42265661462.293869 41693232938.205681 0.000000	-3555327413.434085 17691923150.948051 0.000000	45900629507.943504 5144213248.417992 0.000000	57582198426.299339 19259569811.167725 0.000000	-7388292459.055681 42907001482.088165 0.000000	7440123322.239183 9426577480.996645 0.000000	2306433527.389232 1218780544.265841 0.000000	-5129124746.951363 13960649609.502121 0.000000	14234426898.137621 49768150684.569427 0.000000	-12807898399.542706 8899827522.197241 0.000000	2641398147.859536 1965712394.853864 0.000000	17099326594.835896 42490110684.088425 0.000000	-23394857029.026924 17907303934.577648 0.000000	-9863324429.502266 71193201.316418 0.000000	1643715856.832960 1365133164.731428 0.000000	1923792052.832520 36796701177.104988 0.000000	11468732340.972103 15028672266.153912 0.000000	-11469730085.823236 7138700947.064121 0.000000	14287512821.330715 6591037989.111989 0.000000	-18386078671.268600 19926731858.738174 0.000000	-194536182.367436 8771730523.202393 0.000000	-1996187307.710672 316055111.671711 0.000000	-42109430789.071640 40929770900.443115 0.000000	8432582139.520469 20536205307.865932 0.000000	2285365857.518388 745950428.569388 0.000000	-1085460679.407373 736256240.689444 0.000000	-140318756.710570 9065204975.368975 0.000000	8574986746.379347 16201062484.176748 0.000000	40535168756.722420 56499164178.382385 0.000000	-7757093672.288555 29547460604.178555 0.000000	7284982465.303326 32143591324.514797 0.000000	-15454925527.317211 8618414116.207235 0.000000	9545684909.630186 397622453.985932 0.000000	-1721678976.124343 5341001999.875037 0.000000	-13289620286.971519 9156706085.694569 0.000000	-11553954475.807993 2294403712.637656 0.000000	2028946986.122987 7425605758.076606 0.000000	1524891962.602605 -174756681.482400 0.000000	-6773415860.277991 7692882700.554905 0.000000	-2085047736.233704 33362263.114916 0.000000	20294707057.034245 19326555880.508663 0.000000	18492244295.313484 33839505984.783146 0.000000	-7237853539.196713 2421012925.538115 0.000000	10997680866.749800 11577342761.944181 0.000000	3115265249.076543 34168190769.992317 0.000000	12014341696.259199 12041249789.062000 0.000000	4926832019.465111 5404270162.338357 0.000000	-1517957284.191472 590258454.378516 0.000000	1735373301.669413 17786745313.252659 0.000000	-6677324500.257565 10062917228.816877 0.000000	-45396176916.462364 93683435386.709610 0.000000	1681354967.022591 5598467673.904282 0.000000	3615405400.807388 24253982500.178204 0.000000	-159146226.866063 16835490601.075062 0.000000	-25328119047.421337 8641039115.557972 0.000000	9476084251.791092 1891625225.899137 0.000000	-459810808.039516 3104303840.195931 0.000000	1645149853.291772 525973617.810490 0.000000	-1645759882.090547 2244236894.055716 0.000000	3210726799.457044 9718037827.524920 0.000000	5155821278.056639 5630864609.404081 0.000000	4396801471.387714 32560051648.606800 0.000000	-10293371173.497112 15427235313.243397 0.000000	25051647769.396252 9721962481.661127 0.000000	6773407476.887527 14475101381.472626 0.000000	699062483.974877 1707037142.410973 0.000000	-21510487715.797619 14033289524.165953 0.000000	-19756739881.715725 37752463127.986839 0.000000	1053201675.927827 -158502571.421167 0.000000	-2250891264.708708 90610637398.950607 0.000000	-9878539360.542171 5124055031.505892 0.000000	-3187617762.253063 15006542748.321590 0.000000	-1730545475.041461 1258201373.449077 0.000000	-6520949625.690306 25581257633.868031 0.000000	-29733056277.719410 22761385902.703979 0.000000	-3585789451.404410 1416277076.021112 0.000000	-390015208.479907 16283024075.730520 0.000000	-1022933393.408576 2241298132.051991 0.000000	-28752788099.222054 76741432946.396011 0.000000	13372583671.991701 -1373943282.277237 0.000000	-874974781.162889 149953144.621963 0.000000	-12304110333.515833 14619921323.179068 0.000000	2507540753.899016 2335283946.315005 0.000000	-2509479477.709775 19832332158.697433 0.000000	-2028548186.539232 14745205914.933167 0.000000	14798264065.786385 41280037653.764160 0.000000	-5458341954.639867 9494088340.262955 0.000000	19720945522.664192 4611392866.805643 0.000000	3222184830.206797 7438608554.064447 0.000000	49535814367.901810 16118426672.683578 0.000000	-460355048.412794 20719146286.198860 0.000000	-3125333340.171225 24026668753.492863 0.000000	-21837811396.940105 9838786168.518608 0.000000	-1752056776.966959 23393953500.951675 0.000000	16268144957.248394 22035486685.330021 0.000000	920289677.137595 1867761108.471983 0.000000	15843668365.418926 11947274759.267145 0.000000	-457707315.415396 3847270512.265197 0.000000	25494638632.302120 20322908777.447487 0.000000	-4483880860.742861 2435239888.188513 0.000000	-358008761.536427 2580629053.524453 0.000000	-29101962492.109188 32975007959.802242 0.000000	28932288751.109516 6019941190.113968 0.000000	-1736270636.435562 4378182620.264669 0.000000	-698999143.046881 1063849673.314312 0.000000	-11822184050.722170 16920436616.073811 0.000000	31777992568.575466 8149765395.654416 0.000000	2945554404.784657 1886490999.522213 0.000000	-402126059.399096 2668362141.926920 0.000000	-16289532748.405355 8932769526.551395 0.000000	1387167682.476969 873041187.185573 0.000000	49616319403.722534 61415219200.459877 0.000000	-9032565715.794945 1743313902.438146 0.000000	5803782499.920460 23537526901.533695 0.000000	37247049039.015694 14244462276.089457 0.000000	-4005372417.645190 10632893195.382580 0.000000	9559160328.453415 7210204110.839027 0.000000	-2519295355.912875 7428861714.055268 0.000000	12764576493.616905 8197683722.848592 0.000000	335849479.059461 2431074644.543945 0.000000	-4811854138.208857 -504362830.181736 0.000000	31442164231.658295 49756612045.381157 0.000000	-919848572.289069 903413606.076030 0.000000	1731118370.080643 1513008672.197696 0.000000	-3363701219.359305 4397730432.121804 0.000000	-5670864014.710057 23014913324.054996 0.000000	109846090.124271 15846620241.606588 0.000000	7922878977.192066 18767273336.759743 0.000000	-16764142232.959219 2050311810.571383 0.000000	-2306622663.100803 1552326726.628416 0.000000	6549405344.784874 18764962562.591557 0.000000	-7737127301.094495 2157122358.647547 0.000000	-6913944140.406724 11707737561.145897 0.000000	810845561.713796 23249661207.035580 0.000000	5459265037.863213 4775535129.003372 0.000000	-8387215380.183359 12441883388.740250 0.000000	4111597770.342269 13809435379.729845 0.000000	3255476003.376422 815072931.492263 0.000000	-30283477000.632706 5672179201.690000 0.000000	11059643697.601049 18009572538.544304 0.000000	10056384729.284294 -2020406054.259626 0.000000	1022407000.351665 829622873.994350 0.000000	-19999342741.779739 12854467158.578438 0.000000	-1691244950.887215 663848210.328145 0.000000	-8178897215.502065 2332340718.668989 0.000000	
VECTORS torque float
0.000000 0.000000 253570421375.468445	-0.000000 0.000000 -18065663920.306770	-0.000000 0.000000 -10462337015.142834	0.000000 -0.000000 -10330174185.848246	-0.000000 0.000000 -404133403403.475708	-0.000000 0.000000 10462337015.142834	0.000000 0.000000 10555516443.592911	-0.000000 0.000000 266001387556.001892	-0.000000 0.000000 252381492774.542236	-0.000000 0.000000 1000302293508.257446	0.000000 0.000000 25782284137.971081	0.000000 0.000000 52722141848.056976	-0.000000 0.000000 -415280073535.705750	0.000000 -0.000000 -49911025492.519348	-0.000000 0.000000 -4682933823.660346	-0.000000 0.000000 -621219092914.211670	-0.000000 0.000000 406116672652.302551	-0.000000 0.000000 854040100946.593750	0.000000 -0.000000 -336149680950.510864	0.000000 0.000000 1163186659969.272949	-0.000000 0.000000 371279834252.441650	0.000000 -0.000000 -314995315103.897461	0.000000 0.000000 1377853108734.178711	0.000000 0.000000 1438791757768.014160	-0.000000 0.000000 74161314327.421387	-0.000000 0.000000 692833743135.708130	-0.000000 0.000000 -275350320447.699341	-0.000000 0.000000 2544577504772.028809	-0.000000 0.000000 -3858824013227.472656	-0.000000 0.000000 -14657524482.950552	0.000000 -0.000000 -77740707984.160873	-0.000000 0.000000 14657524268.427401	-0.000000 0.000000 -99450138223.035461	-0.000000 0.000000 -2318525847749.939453	-0.000000 0.000000 218459510034.482910	0.000000 -0.000000 -974027536550.494995	-0.000000 0.000000 -447296055051.326904	-0.000000 0.000000 1117072261496.766113	0.000000 0.000000 1089442167800.948975	-0.000000 0.000000 155030963207.927917	-0.000000 0.000000 -302690264712.353882	0.000000 0.000000 583258221886.425171	-0.000000 0.000000 -506372576246.728455	-0.000000 0.000000 695240273878.753174	-0.000000 0.000000 -921175094215.777344	-0.000000 0.000000 -2371031001608.567383	-0.000000 0.000000 1847488075881.693604	0.000000 -0.000000 -277946121913.208862	0.000000 0.000000 32407956547.931320	0.000000 -0.000000 -32407956547.931320	-0.000000 0.000000 -4099694098597.500000	-0.000000 0.000000 2055779764026.684082	-0.000000 0.000000 -439771081127.505493	0.000000 0.000000 767210873788.953125	0.000000 -0.000000 -1311742797254.778320	-0.000000 0.000000 1181052060350.265137	-0.000000 0.000000 -1098667562622.856445	0.000000 0.000000 661115273922.561646	-0.000000 0.000000 1302189875502.464844	-0.000000 0.000000 1993194219688.663574	0.000000 0.000000 16830057495.077047	0.000000 0.000000 3074000040.626193	-0.000000 0.000000 382212211719.391174	0.000000 -0.000000 -3074105681.286032	0.000000 0.000000 264415016086.096741	-0.000000 0.000000 1755701488167.020020	-0.000000 0.000000 -1024807200576.495728	-0.000000 0.000000 1219369620677.656738	0.000000 -0.000000 -3845231360728.018066	0.000000 0.000000 1635420805317.004150	-0.000000 0.000000 1049793560708.578613	-0.000000 0.000000 -1964662482096.701904	-0.000000 0.000000 1262774002656.838379	0.000000 0.000000 862677079156.980347	0.000000 -0.000000 -3425623812090.463379	-0.000000 0.000000 -305911451985.231750	0.000000 0.000000 54927178998.870461	0.000000 -0.000000 -1951138372170.242676	0.000000 0.000000 310579503792.379578	0.000000 0.000000 34259750359.308105	0.000000 0.000000 474148066394.579651	-0.000000 0.000000 -991649236265.721069	0.000000 -0.000000 -679280219794.479614	0.000000 -0.000000 -1574220145398.504395	-0.000000 0.000000 -3224245707042.266113	-0.000000 0.000000 298971918532.989502	0.000000 -0.000000 -3735565816663.513184	0.000000 -0.000000 -1466495078620.543457	-0.000000 0.000000 -420421925421.013489	-0.000000 0.000000 203170004127.019897	0.000000 -0.000000 -545189891760.658020	-0.000000 0.000000 -1251775973109.877686	-0.000000 0.000000 2076331670985.152344	0.000000 0.000000 34803388964.106918	0.000000 -0.000000 -453117191893.176331	0.000000 -0.000000 -354324458726.935852	-0.000000 0.000000 -2122926162880.419922	0.000000 -0.000000 -2777146152446.437012	-0.000000 0.000000 -1427464787957.135742	0.000000 -0.000000 -1406368206439.842529	-0.000000 0.000000 641134807530.193604	-0.000000 0.000000 -142985097451.188019	0.000000 -0.000000 -967385295950.175415	-0.000000 0.000000 -39778505843.742355	0.000000 -0.000000 -297028553324.034485	-0.000000 0.000000 -48307950543.930000	0.000000 -0.000000 -17263536673.814323	0.000000 0.000000 -900006641188.407471	0.000000 0.000000 725544262839.404541	0.000000 0.000000 174520040589.416779	0.000000 0.000000 -1941662542173.960449	-0.000000 0.000000 1456122388532.280762	0.000000 0.000000 404808997691.838684	0.000000 0.000000 926358784753.388916	-0.000000 0.000000 107485530205.331573	-0.000000 0.000000 -231183207248.061646	0.000000 -0.000000 -732515188154.377930	0.000000 0.000000 54486924294.198990	0.000000 0.000000 3726627026419.444336	0.000000 -0.000000 -81360996435.316925	0.000000 -0.000000 216209336134.941803	0.000000 -0.000000 966669858371.567627	0.000000 -0.000000 521651592627.275391	0.000000 0.000000 1373621511884.428223	-0.000000 0.000000 190143748253.788239	0.000000 -0.000000 -719334008668.622681	-0.000000 0.000000 -2606268510689.540527	0.000000 -0.000000 838638243897.632690	0.000000 0.000000 4601373411.929768	-0.000000 0.000000 625675840413.966675	0.000000 -0.000000 503988064300.824341	0.000000 0.000000 24176389078.729927	0.000000 0.000000 69304355700.885788	-0.000000 0.000000 -2311071903754.123535	0.000000 0.000000 1222818147451.148193	-0.000000 0.000000 1953703864879.900391	0.000000 0.000000 -1274099341235.792236	-0.000000 0.000000 58687216301.830307	-0.000000 0.000000 -503009650697.929260	0.000000 0.000000 -1428446480368.203125	-0.000000 0.000000 46548624893.823990	0.000000 -0.000000 252124948562.925354	0.000000 -0.000000 -25915877388.701412	0.000000 0.000000 538029324811.287476	0.000000 0.000000 -856026000641.647095	0.000000 0.000000 -188885924566.472046	0.000000 -0.000000 -377400647083.661438	-0.000000 0.000000 -26088969713.153255	0.000000 0.000000 227292378914.154572	0.000000 0.000000 398953331472.108154	0.000000 0.000000 -45825721943.031227	-0.000000 0.000000 -24520275610.766235	-0.000000 0.000000 42459610877.660294	0.000000 0.000000 -1813031290741.650635	0.000000 0.000000 709976559670.138428	0.000000 0.000000 -2137159746376.573730	-0.000000 0.000000 -111787241545.776001	0.000000 0.000000 -1290264467000.128662	0.000000 0.000000 117461833840.042084	0.000000 0.000000 2060431186659.195801	-0.000000 0.000000 1133277062952.308594	0.000000 -0.000000 -484202900063.121704	0.000000 0.000000 3996402516222.374023	-0.000000 0.000000 -1468744379327.801514	-0.000000 0.000000 18449018595.947166	0.000000 -0.000000 1812407735392.142578	-0.000000 0.000000 302869588951.934387	-0.000000 0.000000 -2555098081932.645508	0.000000 -0.000000 -108652333628.496765	-0.000000 0.000000 78363600344.368912	-0.000000 0.000000 -155840773339.436249	-0.000000 0.000000 -2056085534388.969238	0.000000 0.000000 -410176651446.655823	-0.000000 0.000000 -172197142104.821930	-0.000000 0.000000 -93957955793.189804	0.000000 -0.000000 414624023271.107300	0.000000 0.000000 705608942395.815918	-0.000000 0.000000 611602815207.046875	-0.000000 0.000000 -1956079875647.393311	-0.000000 0.000000 534208645315.888184	-0.000000 0.000000 1096977760436.894409	-0.000000 0.000000 -2356552561347.875977	0.000000 0.000000 949287252324.138916	0.000000 0.000000 346011679722.546509	0.000000 -0.000000 -660166056751.303589	0.000000 0.000000 -401414073051.842285	0.000000 0.000000 962396625359.723633	0.000000 -0.000000 -923233185144.157715	0.000000 0.000000 887571655674.898071	-0.000000 0.000000 -622712435463.528564	0.000000 -0.000000 1979768542068.265869	0.000000 0.000000 -1144606239777.033203	0.000000 0.000000 23855055405.766731	-0.000000 0.000000 -414633619748.821838	0.000000 -0.000000 -361310186404.825073	-0.000000 0.000000 -78561127012.934906	0.000000 0.000000 432975978366.431152	0.000000 0.000000 -608973142804.239380	0.000000 0.000000 326652403058.027222	0.000000 -0.000000 130249057609.501083	0.000000 0.000000 -656230521544.457886	-0.000000 0.000000 547525992241.954773	0.000000 0.000000 -1719525365.857657	0.000000 0.000000 1452561832717.913086	0.000000 0.000000 508958553581.793640	0.000000 -0.000000 -3152234842336.530273	0.000000 0.000000 1036291664060.278809	-0.000000 0.000000 -422340292396.825012	0.000000 -0.000000 -571768363533.376953	0.000000 0.000000 462149988031.622986	-0.000000 0.000000 -1506337520871.319092	0.000000 0.000000 -128684313307.180634	0.000000 -0.000000 1459852335781.593506	0.000000 0.000000 226220156467.189819	-0.000000 0.000000 -1531416942238.601074	0.000000 0.000000 7412481032.383372	0.000000 -0.000000 -1252363001129.101562	0.000000 -0.000000 576336714772.394287	0.000000 -0.000000 -101392467667.593231	0.000000 0.000000 925519960984.158813	0.000000 0.000000 4055913172535.502441	0.000000 -0.000000 -2035811683367.657471	0.000000 0.000000 -2020634489786.194336	0.000000 0.000000 -2931190613197.584961	0.000000 0.000000 601569813866.989746	0.000000 -0.000000 1486306811945.458008	-0.000000 0.000000 -523813332791.584229	0.000000 -0.000000 -813451570305.057373	0.000000 0.000000 -1662549003571.850342	0.000000 0.000000 1883878633194.700439	0.000000 0.000000 -156581360612.058655	0.000000 -0.000000 440517789970.240967	-0.000000 0.000000 2351905831564.958984	-0.000000 0.000000 30316216959.202225	-0.000000 0.000000 -2861283400031.328613	0.000000 0.000000 -642549523194.016479	0.000000 0.000000 -553143967074.069458	0.000000 -0.000000 2282272935769.103516	0.000000 0.000000 -2243215985031.401367	0.000000 -0.000000 -789487748060.062012	0.000000 0.000000 750399055075.076416	0.000000 -0.000000 1233129240489.578369	0.000000 0.000000 497870363753.947388	0.000000 0.000000 896863166403.708496	-0.000000 0.000000 -1452209519433.516846	0.000000 -0.000000 -989914739964.526245	0.000000 0.000000 124918502611.629639	0.000000 0.000000 -158930599471.348358	-0.000000 0.000000 689160481043.662354	-0.000000 0.000000 -538186006273.448608	-0.000000 0.000000 -18267400169.195961	0.000000 0.000000 -1306071015710.227051	-0.000000 0.000000 1515089314916.453369	0.000000 0.000000 336804067006.892395	-0.000000 0.000000 962323141211.551758	0.000000 0.000000 -958581558332.388062	-0.000000 0.000000 216300491951.053223	0.000000 0.000000 -2068086499448.377930	0.000000 0.000000 1227930299597.962646	0.000000 0.000000 331319299491.418457	-0.000000 0.000000 331722559307.367920	0.000000 0.000000 974184478595.188965	-0.000000 0.000000 -503310681248.060547	0.000000 -0.000000 251702378434.404968	0.000000 -0.000000 -184467968819.351349	0.000000 -0.000000 1441510017302.508057	0.000000 0.000000 -75074978583.630661	-0.000000 0.000000 -739356646401.473999	0.000000 0.000000 -124289065179.151077	0.000000 0.000000 3878634249959.056641	-0.000000 0.000000 -3947261158057.383789	-0.000000 0.000000 160643204498.384247	-0.000000 0.000000 609672369683.592041	0.000000 -0.000000 1572580847958.419678	0.000000 -0.000000 -617825583458.766113	0.000000 0.000000 145541676453.220825	0.000000 0.000000 1665616430305.329590	-0.000000 0.000000 427242557996.891235	0.000000 0.000000 503198551616.806763	-0.000000 0.000000 386803593837.778931	0.000000 0.000000 897684761749.223511	0.000000 0.000000 313964628685.146606	-0.000000 0.000000 -258838113101.146149	0.000000 0.000000 -378990820939.264099	-0.000000 0.000000 -339699893061.564209	0.000000 -0.000000 -601588240067.484741	0.000000 0.000000 -270527660907.507965	0.000000 0.000000 1760350627678.948730	-0.000000 0.000000 13829485576.750317	-0.000000 0.000000 552782146473.045898	0.000000 0.000000 -2073150640814.704102	0.000000 0.000000 547881903550.636658	0.000000 0.000000 916271793614.671143	-0.000000 0.000000 -143995311833.770752	0.000000 -0.000000 188014444256.284302	0.000000 -0.000000 758288367249.248047	-0.000000 0.000000 -661094892368.730835	0.000000 0.000000 -984942872902.985474	0.000000 -0.000000 -661670236976.077271	0.000000 0.000000 2292091875667.864258	0.000000 0.000000 -113468152261.478088	0.000000 0.000000 859155364439.347412	-0.000000 0.000000 -2539551724192.564453	-0.000000 0.000000 1902664234757.009277	0.000000 0.000000 189010305134.527985	0.000000 -0.000000 57008495973.441498	0.000000 0.000000 546796275515.388672	-0.000000 0.000000 -149158344024.338806	0.000000 -0.000000 -1437052185458.926025	-0.000000 0.000000 145004842457.171021	-0.000000 0.000000 1456447059865.138916	0.000000 0.000000 2043500785819.201172	0.000000 -0.000000 -1401959290106.803711	0.000000 -0.000000 -1203814433807.906738	-0.000000 0.000000 -399120439377.738220	-0.000000 0.000000 150337328861.010681	-0.000000 0.000000 637946362757.924316	0.000000 0.000000 2492743110040.859375	0.000000 0.000000 579150049703.841553	0.000000 0.000000 -136033074029.304230	0.000000 0.000000 -228998962879.274506	0.000000 -0.000000 -28597526724.462143	-0.000000 0.000000 -341329696746.369080	-0.000000 0.000000 1132360052575.298096	0.000000 0.000000 -192088671027.864502	0.000000 -0.000000 -215421124159.857452	-0.000000 0.000000 -1066802682054.018311	-0.000000 0.000000 -2414665893571.273926	0.000000 0.000000 414725447424.994202	0.000000 0.000000 -832209291445.988037	0.000000 0.000000 -246499744021.496033	0.000000 -0.000000 -30965493674.116955	-0.000000 0.000000 -5344101338.549538	0.000000 0.000000 299243623738.074768	0.000000 0.000000 -985849658302.828125	0.000000 -0.000000 372825590138.267883	-0.000000 0.000000 -15149058278.041113	-0.000000 0.000000 -240164809166.866272	0.000000 -0.000000 -1340986436891.956055	0.000000 -0.000000 3634868647844.774902	-0.000000 0.000000 -354846856866.807007	-0.000000 0.000000 -2217280011677.085938	0.000000 -0.000000 22508301415.688217	0.000000 0.000000 -392318862739.645264	0.000000 0.000000 731498424288.336792	0.000000 0.000000 467067765694.853577	0.000000 -0.000000 -13545723319.855171	0.000000 -0.000000 393440059184.078308	-0.000000 0.000000 46040515221.552528	0.000000 0.000000 1139442289667.261230	0.000000 -0.000000 -441404870149.348206	0.000000 0.000000 1768582306329.910645	0.000000 0.000000 -191328409515.778290	-0.000000 0.000000 460539250591.543762	0.000000 0.000000 -168886219649.731262	0.000000 -0.000000 -1881094919475.624023	0.000000 -0.000000 -514344505717.855469	0.000000 -0.000000 344727299748.658691	0.000000 0.000000 -23613464359.724403	-0.000000 0.000000 13070725523.667728	-0.000000 0.000000 2878324555802.393555	0.000000 0.000000 1000326946030.309326	0.000000 -0.000000 -108855769150.204163	0.000000 0.000000 -85307338603.420593	0.000000 0.000000 146045949361.157257	-0.000000 0.000000 150516412213.933167	-0.000000 0.000000 330541082906.664917	-0.000000 0.000000 -557519488775.179077	0.000000 -0.000000 -352828616186.125122	0.000000 0.000000 -81606117345.459702	0.000000 -0.000000 355267190367.046448	0.000000 -0.000000 -63149282077.880913	0.000000 0.000000 282725776440.035889	-0.000000 0.000000 -895250255577.236816	0.000000 -0.000000 -224009068340.333405	-0.000000 0.000000 -364032938957.712219	0.000000 0.000000 97364077433.623795	0.000000 0.000000 -1965631210961.112305	0.000000 0.000000 -1060787236126.713745	0.000000 0.000000 -98899240704.110855	0.000000 -0.000000 1116077902878.042236	-0.000000 0.000000 -1881947437905.965332	-0.000000 0.000000 661314609322.200439	-0.000000 0.000000 542494349783.097290	0.000000 0.000000 261827427676.445068	0.000000 0.000000 -2281580154010.828125	0.000000 0.000000 -258828263261.555573	-0.000000 0.000000 2612067517075.895020	0.000000 0.000000 122080852140.446060	0.000000 0.000000 -1570754961384.779297	-0.000000 0.000000 196906393987.081909	0.000000 0.000000 -106384269182.299469	0.000000 0.000000 2079341789667.523926	-0.000000 0.000000 -383943199888.155701	0.000000 0.000000 -1157996883775.288330	0.000000 -0.000000 55939614674.646027	0.000000 0.000000 688306652724.823975	0.000000 -0.000000 -122151651314.309296	0.000000 -0.000000 -26806921365.504353	-0.000000 0.000000 -302989129113.877747	0.000000 0.000000 997660385953.392822	0.000000 0.000000 108643831078.188309	0.000000 -0.000000 167171961099.911987	0.000000 -0.000000 -561060218111.755615	-0.000000 0.000000 -171100023626.784698	0.000000 -0.000000 757682520841.862671	0.000000 -0.000000 -476444881710.909241	0.000000 0.000000 -2039691359843.456543	-0.000000 0.000000 -974587215180.296753	0.000000 -0.000000 -363872511037.070557	0.000000 0.000000 3163476377887.839355	-0.000000 0.000000 -1706696536092.697510	-0.000000 0.000000 -521595333225.970093	-0.000000 0.000000 210976401447.978333	-0.000000 0.000000 -465766052721.292969	0.000000 -0.000000 1351195969346.548584	0.000000 -0.000000 -2106895874867.202393	0.000000 -0.000000 -630144676558.299194	0.000000 0.000000 1345356024101.821777	0.000000 0.000000 48345676035.743546	0.000000 0.000000 68561123451.061790	0.000000 -0.000000 -865578879096.010010	0.000000 0.000000 808069675047.072021	0.000000 0.000000 -1221149295745.201904	0.000000 0.000000 49542935412.202011	0.000000 0.000000 1217137729779.166016	0.000000 0.000000 1543342723036.962402	0.000000 0.000000 -1627014577015.520264	-0.000000 0.000000 24697472546.179855	0.000000 0.000000 431039193717.165649	-0.000000 0.000000 -979987878147.394409	-0.000000 0.000000 94561735994.386703	0.000000 0.000000 -427576123453.398499	0.000000 -0.000000 127490274085.069183	0.000000 0.000000 95884564939.817078	0.000000 -0.000000 337150250629.765686	0.000000 0.000000 -33958893150.106590	0.000000 -0.000000 -11988124330.902483	0.000000 -0.000000 -388123935820.708191	-0.000000 0.000000 -601901333769.647461	0.000000 -0.000000 71905796288.294434	0.000000 -0.000000 -1004434864905.204102	0.000000 0.000000 723838028279.526367	0.000000 0.000000 207271466722.384705	0.000000 -0.000000 1488696910273.438965	0.000000 0.000000 1173963821447.400879	0.000000 -0.000000 -860032702277.904663	0.000000 0.000000 40168871639.754089	-0.000000 0.000000 -12112156233.070595	0.000000 0.000000 1543967691675.010254	-0.000000 0.000000 -295698240447.921997	0.000000 0.000000 -1510138802560.952393	-0.000000 0.000000 -636305221913.727905	0.000000 -0.000000 -37001168864.702515	0.000000 0.000000 929412775681.677246	0.000000 -0.000000 -528427622653.979675	0.000000 -0.000000 857036505654.882690	-0.000000 0.000000 -909132247942.319824	-0.000000 0.000000 -1631192152076.714600	-0.000000 0.000000 -3196485099.409880	0.000000 -0.000000 991529374937.874756	-0.000000 0.000000 1604003258860.977539	0.000000 -0.000000 142796155948.645935	0.000000 0.000000 1057578520597.302612	0.000000 0.000000 -60824540526.780502	-0.000000 0.000000 2595419992816.556152	0.000000 0.000000 404386946551.933838	0.000000 0.000000 17734245896.816711	0.000000 0.000000 748703380263.409302	0.000000 0.000000 -476922616377.714539	0.000000 -0.000000 878820592923.285645	0.000000 0.000000 -31791505092.084736	0.000000 0.000000 -1459327391874.055908	-0.000000 0.000000 1480180052377.352295	0.000000 -0.000000 -160615067580.218994	-0.000000 0.000000 -6678565400.549599	-0.000000 0.000000 238516334248.719238	0.000000 -0.000000 -17490539264.300869	0.000000 -0.000000 34337385529.541267	0.000000 0.000000 -28833620028.313370	-0.000000 0.000000 -12365719301.071840	0.000000 0.000000 54407352657.365616	0.000000 0.000000 -1674896861789.928955	0.000000 -0.000000 -278760331071.728516	0.000000 0.000000 1619839846392.851074	0.000000 0.000000 -359578878070.778992	0.000000 0.000000 328277378711.605469	0.000000 0.000000 -17159181028.312843	0.000000 0.000000 17160083608.943806	0.000000 -0.000000 -441791274920.500122	0.000000 0.000000 975778767321.638916	0.000000 0.000000 -476105499315.342712	0.000000 0.000000 980921556330.469116	-0.000000 0.000000 -162698689270.509338	0.000000 0.000000 -378171802885.276123	-0.000000 0.000000 -677677297536.598022	0.000000 0.000000 -1368687137502.387451	0.000000 -0.000000 -261853742336.779297	0.000000 0.000000 -56475587675.847374	-0.000000 0.000000 -1614118031745.089111	-0.000000 0.000000 256405191922.703217	0.000000 -0.000000 -1828030068792.246582	-0.000000 0.000000 -103807162831.137711	0.000000 -0.000000 -4424196045.106963	0.000000 0.000000 -111067036647.768890	0.000000 0.000000 -595091722264.692871	0.000000 0.000000 236832242714.756287	0.000000 0.000000 -389550381233.097534	-0.000000 0.000000 -45201033809.826416	-0.000000 0.000000 586206429059.688599	-0.000000 0.000000 351461206871.802124	0.000000 0.000000 514450008944.666443	0.000000 0.000000 714121622240.525513	-0.000000 0.000000 1452991375074.920898	0.000000 0.000000 -1484721606769.883057	0.000000 0.000000 274155500625.736511	0.000000 -0.000000 624353696359.951172	-0.000000 0.000000 -515334142132.804688	0.000000 0.000000 270563268870.852539	-0.000000 0.000000 -1120540586226.853271	-0.000000 0.000000 408608303527.969299	-0.000000 0.000000 -627567971318.984741	0.000000 0.000000 407109385516.610291	0.000000 0.000000 122494591715.075531	0.000000 -0.000000 -542522209995.896912	0.000000 -0.000000 1114576482855.318604	0.000000 0.000000 -19035243628.531544	-0.000000 0.000000 374003434130.933105	0.000000 0.000000 10672657565.226736	-0.000000 0.000000 804696780757.216797	0.000000 0.000000 1235155848710.006836	-0.000000 0.000000 -471303991077.738525	0.000000 -0.000000 -166010639540.894470	0.000000 0.000000 -260936085377.281250	-0.000000 0.000000 -397286703407.424561	0.000000 0.000000 475889033308.037292	0.000000 -0.000000 -130720225087.445129	0.000000 0.000000 38245760567.628975	-0.000000 0.000000 -1308649029838.475342	-0.000000 0.000000 -2815242996.442573	-0.000000 0.000000 286943765566.341797	-0.000000 0.000000 21727044855.152855	-0.000000 0.000000 1655564125588.792725	0.000000 0.000000 95220521055.124756	0.000000 0.000000 -1133557843934.045654	0.000000 0.000000 26810023420.855309	0.000000 0.000000 912678931949.091309	0.000000 -0.000000 -231602957666.345215	-0.000000 0.000000 441386907238.848938	-0.000000 0.000000 360964323535.145447	0.000000 0.000000 -57621705086.917023	0.000000 0.000000 -1014297360671.167114	-0.000000 0.000000 1509581777107.628418	-0.000000 0.000000 438277082813.821228	0.000000 -0.000000 -576158812328.053833	0.000000 -0.000000 -10013454569.814394	0.000000 0.000000 789577040889.084106	0.000000 0.000000 462456495246.987488	-0.000000 0.000000 -67126734690.890976	-0.000000 0.000000 705237875606.046509	0.000000 0.000000 1279952205900.229004	0.000000 -0.000000 -279403468382.012268	0.000000 0.000000 507347577581.666321	0.000000 0.000000 -182654919203.274048	0.000000 0.000000 -1057709666882.668457	0.000000 -0.000000 861179463753.061890	0.000000 0.000000 -692177537923.817261	-0.000000 0.000000 1122634787012.255859	-0.000000 0.000000 -426242687338.443481	0.000000 -0.000000 66646762069.947136	0.000000 0.000000 -127771375463.965912	0.000000 -0.000000 -84293193897.252121	0.000000 0.000000 148925080918.486542	0.000000 0.000000 -164424145310.960388	0.000000 -0.000000 -233415687669.330200	-0.000000 0.000000 -1993779094504.926514	0.000000 0.000000 -263143120697.939697	0.000000 0.000000 2322609276211.817383	0.000000 -0.000000 113337283661.483017	0.000000 0.000000 36132306310.087440	0.000000 0.000000 -13766570402.280670	-0.000000 0.000000 14832018298.690281	0.000000 0.000000 208132725540.226013	-0.000000 0.000000 -353625483332.205322	0.000000 -0.000000 -5025822038.191460	0.000000 0.000000 -1146037695469.494873	0.000000 0.000000 -107252040545.869720	-0.000000 0.000000 1253347581474.802979	-0.000000 0.000000 618321492352.090088	-0.000000 0.000000 512309654773.152222	-0.000000 0.000000 -317875920079.233765	-0.000000 0.000000 -302905744304.760925	-0.000000 0.000000 418276214688.085449	0.000000 0.000000 -1832810279143.915039	0.000000 0.000000 601101041170.309814	-0.000000 0.000000 677523102207.443115	0.000000 -0.000000 9053724277.236208	0.000000 0.000000 121896660254.877274	0.000000 -0.000000 213542545987.546600	0.000000 0.000000 110260448376.226715	-0.000000 0.000000 -456536967808.248657	0.000000 0.000000 859854921680.745972	0.000000 0.000000 -519149611979.203003	-0.000000 0.000000 802486082742.486328	0.000000 0.000000 1275888701027.821045	-0.000000 0.000000 -299569036116.088379	-0.000000 0.000000 995229805036.184937	0.000000 -0.000000 319182408611.647522	0.000000 -0.000000 -74141824184.755814	0.000000 0.000000 297442514759.185791	-0.000000 0.000000 -466149586107.185730	0.000000 0.000000 -1027763406349.731079	0.000000 0.000000 -1036433973230.313232	0.000000 0.000000 283734443677.123840	-0.000000 0.000000 -994129050418.391479	-0.000000 0.000000 493217054761.407654	0.000000 0.000000 -227303287224.685242	0.000000 0.000000 -243985910841.813232	0.000000 0.000000 744140876491.015259	0.000000 0.000000 -253412445556.704407	0.000000 0.000000 -174526010219.322021	0.000000 -0.000000 273715346872.527527	0.000000 0.000000 37070562481.564941	-0.000000 0.000000 -224053450403.794373	0.000000 0.000000 60495445615.735580	0.000000 0.000000 -1294248140357.288818	-0.000000 0.000000 374345817102.698975	-0.000000 0.000000 711317181956.941528	0.000000 0.000000 123459851543.078430	-0.000000 0.000000 -3559847120.200263	0.000000 0.000000 53577804846.033989	-0.000000 0.000000 772651970084.158569	0.000000 -0.000000 -723454265023.154785	-0.000000 0.000000 -103026752847.987198	0.000000 0.000000 2197200219552.007568	0.000000 0.000000 -458130537030.905762	0.000000 0.000000 -352926189326.038208	-0.000000 0.000000 15712630385.706120	0.000000 0.000000 91985530588.486023	0.000000 0.000000 700405702392.405396	0.000000 -0.000000 -595220656620.554932	0.000000 0.000000 -27411756442.200562	-0.000000 0.000000 -38004576188.763550	-0.000000 0.000000 -578158714.823235	0.000000 -0.000000 -139549485516.406982	0.000000 0.000000 377610807359.003113	0.000000 0.000000 -264509561247.517029	-0.000000 0.000000 311608216833.267151	-0.000000 0.000000 -15710657016.659718	0.000000 0.000000 -464446136004.090271	-0.000000 0.000000 298778746691.014832	0.000000 0.000000 -744416795163.548340	0.000000 0.000000 882116972405.134888	-0.000000 0.000000 -777360441672.769287	-0.000000 0.000000 -939063611276.050293	0.000000 -0.000000 226603280011.639709	0.000000 -0.000000 1177461106369.594482	0.000000 0.000000 -5620960518.991742	-0.000000 0.000000 186969386662.493408	0.000000 -0.000000 415257007758.165894	0.000000 -0.000000 2815400725.198841	0.000000 0.000000 168841137571.321259	0.000000 -0.000000 -4533799829.701828	0.000000 0.000000 -1862635263650.134766	0.000000 0.000000 1101278647409.717529	-0.000000 0.000000 207636233508.490234	0.000000 -0.000000 -846749843888.270630	0.000000 0.000000 597056387086.092407	-0.000000 0.000000 1208770952566.236328	0.000000 0.000000 -593167178423.333496	-0.000000 0.000000 186625733428.380737	0.000000 0.000000 406531136084.343323	-0.000000 0.000000 492538755721.300598	0.000000 0.000000 674115267277.514038	0.000000 0.000000 -1118824828709.994141	-0.000000 0.000000 176151866074.411774	0.000000 0.000000 17825829363.843521	0.000000 -0.000000 280275408118.677795	-0.000000 0.000000 1714684573753.462402	-0.000000 0.000000 -203563466330.935791	0.000000 0.000000 -87006798783.370956	0.000000 -0.000000 595036319480.225342	0.000000 0.000000 -577498442811.372437	0.000000 -0.000000 345000108524.877014	0.000000 -0.000000 -105853884973.240662	-0.000000 0.000000 10726359141.853815	-0.000000 0.000000 -654817790386.528320	0.000000 -0.000000 -74336244267.029587	0.000000 -0.000000 350889017354.020081	-0.000000 0.000000 -1412087388481.570312	0.000000 0.000000 -119484917318.399643	-0.000000 0.000000 695154531338.745239	0.000000 0.000000 -382307931331.359131	0.000000 0.000000 1241124718518.915039	0.000000 -0.000000 -2583748306.466934	-0.000000 0.000000 -302201748315.456116	-0.000000 0.000000 -240807464628.173523	0.000000 0.000000 116908169249.075180	0.000000 0.000000 -583781771917.251343	-0.000000 0.000000 945973167318.873901	-0.000000 0.000000 -1434469930630.374023	-0.000000 0.000000 -364291551180.815063	0.000000 0.000000 -891529691661.474365	0.000000 -0.000000 -916530747586.633667	-0.000000 0.000000 1019241818695.921509	0.000000 0.000000 966706515558.338745	0.000000 -0.000000 -470609021157.092041	0.000000 0.000000 470642446544.050781	0.000000 -0.000000 -8989562202.572439	0.000000 0.000000 15849407184.725830	0.000000 0.000000 -10025895339.162443	0.000000 0.000000 -42842719296.619858	0.000000 0.000000 1863411638709.986328	0.000000 0.000000 47467395842.567223	0.000000 -0.000000 -304015204413.713318	-0.000000 0.000000 -127459755594.669434	0.000000 0.000000 -1327161689431.432373	0.000000 0.000000 536954941618.074768	-0.000000 0.000000 -116668590406.549133	0.000000 -0.000000 -30790762925.438957	-0.000000 0.000000 -875192669438.428345	-0.000000 0.000000 504403495251.512939	-0.000000 0.000000 100144157043.437805	0.000000 -0.000000 -215269341358.658691	-0.000000 0.000000 286466002890.241943	0.000000 0.000000 -464908254387.638062	-0.000000 0.000000 -133255890389.635712	0.000000 0.000000 693327044784.277588	-0.000000 0.000000 44764645088.667122	-0.000000 0.000000 -1339533024286.068848	0.000000 -0.000000 265169543009.265442	0.000000 0.000000 850430602290.446533	0.000000 0.000000 -433180690370.292053	0.000000 0.000000 696176679245.300049	0.000000 0.000000 -16228246160.015152	-0.000000 0.000000 -133470914357.432190	0.000000 0.000000 403121134884.306030	0.000000 0.000000 -1164868829262.462891	-0.000000 0.000000 1107055190307.900391	-0.000000 0.000000 1265049223928.466553	0.000000 0.000000 30579206448.670296	-0.000000 0.000000 -85646511054.111633	0.000000 0.000000 487088690227.536011	0.000000 -0.000000 -668042335891.608887	-0.000000 0.000000 -1338298782361.727539	0.000000 0.000000 344468710945.070068	0.000000 0.000000 649498296689.922974	0.000000 0.000000 -630165528948.992188	0.000000 -0.000000 -180556980385.041565	0.000000 0.000000 3060134417.112704	0.000000 0.000000 23581037384.213734	-0.000000 0.000000 -20035827629.039417	-0.000000 0.000000 -233525993418.541321	-0.000000 0.000000 -448677811218.048523	0.000000 -0.000000 -18959025555.117485	0.000000 0.000000 -605523477922.219727	0.000000 0.000000 882193995783.704102	0.000000 0.000000 864320870395.323730	0.000000 0.000000 136141089026.635742	0.000000 0.000000 12833027687.819023	0.000000 -0.000000 -84786612948.438232	-0.000000 0.000000 -133528306234.847687	0.000000 0.000000 857604130873.740234	0.000000 -0.000000 -201481021385.861877	-0.000000 0.000000 -2201019948257.861816	-0.000000 0.000000 491993055186.790955	-0.000000 0.000000 -1524451118853.760254	0.000000 0.000000 -141241149598.008575	-0.000000 0.000000 479783025721.629272	0.000000 0.000000 1085763203582.270142	0.000000 -0.000000 1182814124204.705078	0.000000 0.000000 152227502475.265228	-0.000000 0.000000 -1137668652008.557373	-0.000000 0.000000 136325290707.477386	0.000000 -0.000000 -35891885670.137894	0.000000 0.000000 2287654485.529277	0.000000 0.000000 39096675019.265564	0.000000 0.000000 -142456770112.312195	0.000000 -0.000000 276773583508.520386	0.000000 -0.000000 -674782283585.494629	0.000000 0.000000 648718548323.615967	-0.000000 0.000000 -679929753105.299072	0.000000 -0.000000 203290410993.494141	0.000000 -0.000000 -537003364083.472717	0.000000 0.000000 118520490095.681900	0.000000 -0.000000 -291764601660.590210	0.000000 0.000000 221654739468.244934	0.000000 -0.000000 1292532576982.551514	0.000000 0.000000 -733239082056.311890	-0.000000 0.000000 1117584632.016910	0.000000 0.000000 -374723896144.570374	0.000000 0.000000 -123879761649.856888	-0.000000 0.000000 1192481996921.680664	0.000000 -0.000000 -338073735898.725891	-0.000000 0.000000 -1799684046960.158691	0.000000 0.000000 219598048718.084869	-0.000000 0.000000 756975408421.651245	0.000000 0.000000 -195137925835.284637	-0.000000 0.000000 115228316775.424927	-0.000000 0.000000 -116888033396.736938	0.000000 -0.000000 -129512859582.603867	0.000000 0.000000 214713533531.712921	-0.000000 0.000000 342209440022.461853	-0.000000 0.000000 2872662776166.685547	0.000000 -0.000000 -330271172954.212524	0.000000 0.000000 476524833389.463745	0.000000 0.000000 -142057396848.284210	0.000000 -0.000000 -350980589738.661377	0.000000 -0.000000 1660758543010.632324	0.000000 0.000000 -654133939404.332764	-0.000000 0.000000 -856907079158.162842	0.000000 0.000000 18961299965.296371	0.000000 0.000000 96646306234.817322	0.000000 0.000000 548335087844.387207	0.000000 -0.000000 -666432024739.087769	0.000000 0.000000 170121258153.459290	0.000000 0.000000 -671099550001.345459	-0.000000 0.000000 -37484235721.859306	0.000000 0.000000 430527422577.969238	0.000000 0.000000 390911217606.260559	-0.000000 0.000000 840445666225.190186	0.000000 0.000000 418336497793.222290	0.000000 0.000000 -53999097968.560440	0.000000 0.000000 1448420734565.434570	0.000000 -0.000000 342102214289.570679	0.000000 0.000000 37769885246.224426	0.000000 -0.000000 -60062575902.975418	0.000000 -0.000000 -192222048992.700867	-0.000000 0.000000 -135132096917.562408	0.000000 0.000000 -917329807347.453857	0.000000 0.000000 -517570726129.559937	0.000000 0.000000 465253844641.251709	0.000000 0.000000 -1821723674773.804199	-0.000000 0.000000 892070062101.535156	0.000000 -0.000000 6677855960.481323	0.000000 0.000000 42395555103.319763	-0.000000 0.000000 252940332163.760651	0.000000 0.000000 735124100819.318481	0.000000 -0.000000 -484120442682.636475	0.000000 0.000000 -1296199573028.587158	0.000000 -0.000000 -701523289305.025757	-0.000000 0.000000 399179239018.586060	0.000000 0.000000 1340045013788.784912	0.000000 -0.000000 -189552511804.811371	-0.000000 0.000000 -289855328830.789062	0.000000 0.000000 -643361841438.639038	0.000000 0.000000 476282199542.394653	0.000000 -0.000000 -76898520186.791183	-0.000000 0.000000 -678963355406.882690	0.000000 0.000000 1369308010481.053955	-0.000000 0.000000 -30842805401.973129	-0.000000 0.000000 -96398480547.224823	0.000000 0.000000 -593309985626.760376	-0.000000 0.000000 188266671552.983673	0.000000 -0.000000 21587707726.120331	0.000000 0.000000 699518578937.322388	-0.000000 0.000000 -347962504071.629395	-0.000000 0.000000 -800805618825.799683	-0.000000 0.000000 201457510593.524109	0.000000 -0.000000 -229114777791.219788	0.000000 -0.000000 198380017805.301819	0.000000 -0.000000 70748515649.884705	-0.000000 0.000000 -10604216567.994156	0.000000 0.000000 39473263054.908005	-0.000000 0.000000 431722619203.702393	-0.000000 0.000000 635108873764.373901	0.000000 0.000000 -415879684330.049133	0.000000 0.000000 625462547008.832153	0.000000 0.000000 -1017133830639.153076	0.000000 0.000000 103673195747.056732	0.000000 0.000000 -968402642020.707397	0.000000 -0.000000 96360705145.211441	0.000000 0.000000 687987310002.014160	-0.000000 0.000000 -545302587051.097351	-0.000000 0.000000 1272976034435.556396	0.000000 -0.000000 -405481827525.156128	-0.000000 0.000000 -375412656112.294434	0.000000 0.000000 -371378870696.791321	0.000000 0.000000 -95587489104.561279	0.000000 0.000000 -24696156010.691769	-0.000000 0.000000 -530325372202.616150	0.000000 0.000000 4362489813.956703	0.000000 0.000000 223936843321.904785	0.000000 -0.000000 58637260671.293694	-0.000000 0.000000 611748485972.261230	0.000000 0.000000 62084500468.405777	0.000000 0.000000 -87487299512.825668	0.000000 0.000000 977295899843.335449	-0.000000 0.000000 -468666002435.984558	0.000000 0.000000 -348336761087.145325	0.000000 -0.000000 -171886537040.219055	0.000000 0.000000 329867624141.311768	0.000000 0.000000 -916410635017.732666	-0.000000 0.000000 -100669084967.421295	-0.000000 0.000000 314988536708.237000	-0.000000 0.000000 439061545892.547424	0.000000 0.000000 215736202566.010376	0.000000 -0.000000 11987097057.816193	0.000000 0.000000 308352928000.187378	-0.000000 0.000000 43241649737.729889	0.000000 0.000000 -200440774675.296600	0.000000 -0.000000 436015945030.619324	0.000000 0.000000 119341362342.603104	0.000000 0.000000 -54843578687.288902	-0.000000 0.000000 225711130796.139496	-0.000000 0.000000 1313011961710.166260	0.000000 0.000000 -1234523577221.743652	0.000000 0.000000 -352097958347.504150	0.000000 0.000000 68882493886.600739	0.000000 0.000000 -339679537368.511841	0.000000 0.000000 -510466040879.889648	0.000000 0.000000 213028834793.783813	-0.000000 0.000000 -76619501817.172195	0.000000 -0.000000 -225991619897.186218	-0.000000 0.000000 180094898276.001923	0.000000 0.000000 -262073356957.801270	0.000000 0.000000 -864664359253.547119	0.000000 0.000000 -2906296557141.031738	0.000000 0.000000 -489145958341.881836	0.000000 -0.000000 -779188340219.326050	0.000000 -0.000000 388807834839.806274	0.000000 0.000000 -425885672293.338989	0.000000 0.000000 -10865731935.535120	0.000000 0.000000 -152255779263.000397	0.000000 -0.000000 -73642446460.117935	-0.000000 0.000000 -14369852914.310120	-0.000000 0.000000 35474571723.666435	0.000000 -0.000000 -221219885974.136108	-0.000000 0.000000 120534159089.590332	0.000000 0.000000 -114855209654.020279	-0.000000 0.000000 -11465876000.895149	-0.000000 0.000000 -260174463954.679382	0.000000 0.000000 -513810103984.605591	0.000000 0.000000 3039188742.943104	0.000000 -0.000000 741762425257.387817	0.000000 -0.000000 69716820135.590668	0.000000 0.000000 -472728522144.791565	0.000000 0.000000 26125412203.917770	0.000000 -0.000000 -31348412372.084084	0.000000 0.000000 379082574577.600952	0.000000 -0.000000 382299052092.104187	0.000000 0.000000 -9201896325.044168	0.000000 -0.000000 -639317960271.795410	0.000000 0.000000 238708229014.981384	0.000000 0.000000 474117590433.396057	-0.000000 0.000000 473119645241.243286	0.000000 -0.000000 -974790065242.068970	0.000000 0.000000 401311673320.467407	0.000000 -0.000000 200381989000.478271	0.000000 -0.000000 -174559485904.511139	-0.000000 0.000000 15034262578.873869	-0.000000 0.000000 842220655990.302246	0.000000 0.000000 172675145448.954315	-0.000000 0.000000 379741706529.218140	-0.000000 0.000000 -184024132941.962952	0.000000 0.000000 -247794496508.553497	-0.000000 0.000000 72930405325.113571	-0.000000 0.000000 162316184519.108154	0.000000 0.000000 32686163957.526680	0.000000 0.000000 271532672946.021423	0.000000 -0.000000 -573001475652.593994	0.000000 0.000000 -1431249099157.818359	0.000000 0.000000 -14832028051.298012	0.000000 -0.000000 -366466089618.257263	0.000000 0.000000 25500607826.377037	-0.000000 0.000000 1242018423055.615234	0.000000 -0.000000 -175582488352.530426	0.000000 0.000000 -861641474210.822144	-0.000000 0.000000 11466684411.242584	0.000000 0.000000 -64092914782.378899	0.000000 0.000000 -107551923034.545105	0.000000 -0.000000 -74522893366.787628	0.000000 0.000000 31626135484.960796	0.000000 0.000000 155676243852.235168	-0.000000 0.000000 -14067401210.074074	0.000000 0.000000 107202910525.914215	-0.000000 0.000000 831334165508.817017	0.000000 0.000000 -623044679136.714111	0.000000 0.000000 -486790775364.175720	0.000000 0.000000 111206003722.105377	0.000000 0.000000 -231191446436.019958	0.000000 0.000000 226784393797.578003	-0.000000 0.000000 -89000740004.182861	0.000000 0.000000 -724634251492.583008	-0.000000 0.000000 326535547476.877197	-0.000000 0.000000 -417071894065.844299	0.000000 0.000000 165342319143.545410	-0.000000 0.000000 1556740836581.794189	0.000000 0.000000 369062447935.719604	0.000000 -0.000000 1242925267181.056641	0.000000 0.000000 -722527451152.635986	-0.000000 0.000000 -469071151005.921753	-0.000000 0.000000 -127032206773.447342	-0.000000 0.000000 101093893168.590027	0.000000 0.000000 -98688893310.370422	0.000000 0.000000 10257458733.675755	-0.000000 0.000000 242261914227.972870	0.000000 -0.000000 -134081963076.394440	-0.000000 0.000000 1084365878328.391846	-0.000000 0.000000 293164222247.873901	0.000000 0.000000 -979737579533.540161	0.000000 0.000000 147071268707.656586	0.000000 -0.000000 -5531675707.520816	0.000000 0.000000 203003812758.681061	-0.000000 0.000000 -5454523916.422743	-0.000000 0.000000 490782768215.543152	0.000000 0.000000 -897797869333.577393	0.000000 0.000000 774900408999.723389	0.000000 -0.000000 -439032097711.592590	0.000000 -0.000000 -247967153086.740173	0.000000 0.000000 67705187744.444565	0.000000 0.000000 234434905175.309265	0.000000 -0.000000 -332624435246.771606	-0.000000 0.000000 99577633880.773651	0.000000 0.000000 42022891408.169563	0.000000 -0.000000 48176901968.995247	0.000000 0.000000 147021916903.888947	0.000000 0.000000 -167973475654.045776	0.000000 -0.000000 -136411614798.516998	0.000000 0.000000 170867088150.162262	0.000000 0.000000 186558099909.561554	0.000000 0.000000 -90981823200.678665	0.000000 0.000000 1567734284532.488037	0.000000 0.000000 -38805202579.609055	0.000000 -0.000000 -749966829142.257446	0.000000 -0.000000 -524219929304.070801	0.000000 0.000000 92451590032.967743	0.000000 0.000000 -318395130205.207947	0.000000 0.000000 157520958701.429443	0.000000 -0.000000 -59146258673.412415	-0.000000 0.000000 655741961073.479858	-0.000000 0.000000 -403623394026.945679	0.000000 0.000000 -227329082428.442413	0.000000 0.000000 48381069788.381218	0.000000 0.000000 -297732527568.310425	0.000000 0.000000 208634229551.001953	-0.000000 0.000000 220554513739.573517	0.000000 -0.000000 -140914489446.105377	0.000000 0.000000 -554236009260.985840	-0.000000 0.000000 -110589524062.565979	0.000000 0.000000 11079152256.504444	0.000000 0.000000 903252355170.241943	0.000000 0.000000 789642291942.703369	0.000000 -0.000000 -140471651708.045410	0.000000 0.000000 -954748916523.667725	-0.000000 0.000000 4583777471.043192	0.000000 -0.000000 50060584821.016006	0.000000 0.000000 -6522434111.150318	0.000000 0.000000 862424164899.980103	-0.000000 0.000000 -463023554714.112549	0.000000 -0.000000 -255483105002.149841	-0.000000 0.000000 -36421947337.755753	-0.000000 0.000000 328189623121.790161	0.000000 0.000000 -198677111464.162445	0.000000 -0.000000 -231133553308.343933	0.000000 0.000000 147859832006.760101	-0.000000 0.000000 176992744625.583893	0.000000 0.000000 -371614214588.266602	0.000000 0.000000 164213414743.697571	0.000000 0.000000 55311790065.675018	-0.000000 0.000000 407852905367.758301	0.000000 -0.000000 -849069066059.705688	-0.000000 0.000000 -281443467516.153137	0.000000 -0.000000 138822483750.154175	0.000000 0.000000 -89247576797.254898	-0.000000 0.000000 145705916138.415955	-0.000000 0.000000 -177478820261.821472	0.000000 0.000000 3419167453.951757	-0.000000 0.000000 347643851235.115417	0.000000 0.000000 15047692295.931656	-0.000000 0.000000 268961334100.922577	0.000000 0.000000 -1383297047416.173096	0.000000 0.000000 15685976000.127554	0.000000 0.000000 -32460338186.245720	0.000000 0.000000 61952361489.014114	-0.000000 0.000000 95546785528.973663	0.000000 -0.000000 -8920518993.070427	-0.000000 0.000000 -114578410460.145142	0.000000 -0.000000 -109509520909.420868	-0.000000 0.000000 -4583516202.366525	0.000000 0.000000 286742309600.998474	-0.000000 0.000000 -51517065897.003555	-0.000000 0.000000 142726241514.124908	0.000000 0.000000 -261975085803.514343	0.000000 0.000000 273396096153.476685	0.000000 0.000000 -93239755457.907120	0.000000 -0.000000 -359808612969.302917	0.000000 -0.000000 28659212280.708954	0.000000 0.000000 -92522820517.913574	-0.000000 0.000000 -3268708116.673951	0.000000 0.000000 -37833796060.669754	-0.000000 0.000000 -69552248927.417358	0.000000 0.000000 55712887412.145027	0.000000 0.000000 -117782234711.268875	-0.000000 0.000000 97917171596.638458	0.000000 -0.000000 -371075818176.207764	0.000000 0.000000 390970340381.414368	0.000000 0.000000 98410037621.612885	0.000000 -0.000000 -6260435372.768684	0.000000 0.000000 -374281433136.390015	0.000000 0.000000 362902358788.596069	0.000000 0.000000 178123272659.171692	0.000000 -0.000000 -340618037707.569275	0.000000 0.000000 -30792298156.812370	-0.000000 0.000000 -617338774945.904175	0.000000 -0.000000 -407574163071.728760	-0.000000 0.000000 287434961955.110352	0.000000 0.000000 -1827970718720.351074	0.000000 0.000000 297765217102.487610	0.000000 0.000000 131662094318.841278	-0.000000 0.000000 422599482723.690674	0.000000 0.000000 -705501291492.901611	0.000000 0.000000 105805484848.827591	0.000000 -0.000000 -404842403940.549072	-0.000000 0.000000 -346519531393.004272	0.000000 0.000000 723804507606.948730	0.000000 0.000000 -1266799850530.996582	0.000000 0.000000 284231300699.330383	0.000000 -0.000000 -770210944076.000732	0.000000 0.000000 172879148835.032776	0.000000 0.000000 250393976963.484009	0.000000 0.000000 -60005560342.574852	0.000000 -0.000000 150301627166.196350	0.000000 -0.000000 -452637890959.005310	0.000000 -0.000000 432017598240.995667	-0.000000 0.000000 32103261696.957745	0.000000 -0.000000 124293622029.378433	0.000000 0.000000 -29844362778.082535	0.000000 0.000000 25383571133.239201	0.000000 0.000000 -658246979760.097168	0.000000 0.000000 764651108699.178345	-0.000000 0.000000 -60664683813.568939	-0.000000 0.000000 70133006993.759094	0.000000 0.000000 -175602564237.326172	-0.000000 0.000000 -100590744728.403427	0.000000 0.000000 278434055168.994019	0.000000 0.000000 -1653506915.712041	0.000000 -0.000000 82539632711.016479	-0.000000 0.000000 -650555089967.179810	0.000000 0.000000 258662569621.451355	-0.000000 0.000000 557252833871.250854	0.000000 -0.000000 65425458192.997643	0.000000 0.000000 -511264805974.937866	0.000000 -0.000000 99003828678.674973	-0.000000 0.000000 -386496083490.026855	-0.000000 0.000000 338568518555.965454	-0.000000 0.000000 -130801641517.462387	0.000000 0.000000 -35858405343.277298	-0.000000 0.000000 -135202743344.306900	-0.000000 0.000000 119218953297.937637	-0.000000 0.000000 -1055289067353.377808	0.000000 0.000000 -160930487190.698425	0.000000 0.000000 -298897840020.716248	0.000000 -0.000000 -24921405457.476917	-0.000000 0.000000 -28658377860.132290	0.000000 0.000000 -580762641483.474243	-0.000000 0.000000 135635179088.514374	0.000000 0.000000 39702326401.153976	0.000000 0.000000 215324177422.505585	0.000000 0.000000 248677061500.654968	-0.000000 0.000000 243850102389.199890	0.000000 -0.000000 -135793902333.652649	-0.000000 0.000000 -357159483918.381104	0.000000 0.000000 376755623732.383362	-0.000000 0.000000 -324797621445.347107	0.000000 0.000000 20036303739.906792	0.000000 0.000000 -626487784365.031250	0.000000 0.000000 -107159563404.145218	-0.000000 0.000000 -211476008599.068115	-0.000000 0.000000 705810179359.107910	0.000000 0.000000 146980024871.891327	0.000000 -0.000000 151806894970.337646	0.000000 -0.000000 -256854835459.075562	0.000000 0.000000 71514222928.589462	-0.000000 0.000000 -247943873436.484344	-0.000000 0.000000 46403638431.753609	0.000000 -0.000000 113422263791.224792	0.000000 0.000000 176579326190.455505	-0.000000 0.000000 531493200181.802490	-0.000000 0.000000 -518454282623.988892	0.000000 0.000000 -370512080228.010864	0.000000 0.000000 -13937814088.573093	0.000000 0.000000 13938023434.446520	0.000000 0.000000 -193614942430.126770	0.000000 0.000000 4533880008.647097	-0.000000 0.000000 234203142293.520325	-0.000000 0.000000 -80274989896.809021	-0.000000 0.000000 276710312056.204346	0.000000 0.000000 -86843511943.386917	-0.000000 0.000000 -284137858335.733337	0.000000 -0.000000 -34524295967.221550	-0.000000 0.000000 -2306513858.650030	0.000000 -0.000000 128677474689.859772	0.000000 -0.000000 500325063471.037231	-0.000000 0.000000 -336646524977.007629	0.000000 0.000000 -379377729063.788696	0.000000 0.000000 -168186982234.824615	0.000000 0.000000 566103921726.919434	0.000000 -0.000000 -30108495524.244564	0.000000 0.000000 6521115548.110041	0.000000 -0.000000 -202971434814.010040	0.000000 0.000000 1095493153349.427979	0.000000 -0.000000 -405784240429.837952	-0.000000 0.000000 -884166317616.752930	0.000000 0.000000 80930046574.579330	-0.000000 0.000000 66793142371.019821	0.000000 -0.000000 -160364509871.702698	0.000000 -0.000000 335726341629.016724	-0.000000 0.000000 1902033967331.270996	0.000000 0.000000 21515810252.012634	0.000000 0.000000 -1544093119983.074951	0.000000 0.000000 133488406630.657669	-0.000000 0.000000 2033884010048.857910	0.000000 0.000000 36338006786.103958	-0.000000 0.000000 297305031972.639282	-0.000000 0.000000 -400439182316.218079	0.000000 0.000000 194658285239.390686	0.000000 0.000000 84895750939.124084	0.000000 -0.000000 -439447347421.212646	0.000000 0.000000 16023865009.675098	0.000000 0.000000 -625641720035.813232	-0.000000 0.000000 796269819789.515259	-0.000000 0.000000 -453348024545.925964	0.000000 0.000000 133274538078.185532	0.000000 -0.000000 -126703844773.953400	0.000000 0.000000 -935155371846.357666	0.000000 -0.000000 -277077831982.380737	-0.000000 0.000000 131391628328.643036	-0.000000 0.000000 -326035963910.354736	0.000000 0.000000 254509945152.642212	0.000000 -0.000000 -62765637209.294250	0.000000 0.000000 503084406167.176758	-0.000000 0.000000 1143404444266.540527	-0.000000 0.000000 -454552593292.729126	0.000000 -0.000000 -36205856293.684814	-0.000000 0.000000 -1614324111.819480	-0.000000 0.000000 24949513350.735222	0.000000 0.000000 700471311373.169067	-0.000000 0.000000 578186217.838224	-0.000000 0.000000 -15388128080.518953	0.000000 -0.000000 -145229965988.645081	0.000000 0.000000 -219954761591.055023	0.000000 -0.000000 -129212354285.485962	0.000000 -0.000000 -81360646618.884247	-0.000000 0.000000 222543141827.977448	-0.000000 0.000000 -67216905496.575516	0.000000 -0.000000 161673750224.445038	0.000000 0.000000 208254605429.692108	0.000000 -0.000000 -76773566445.509109	-0.000000 0.000000 11843089448.168282	0.000000 0.000000 -434096676600.676086	0.000000 -0.000000 -101316000241.132706	0.000000 0.000000 399785640328.500366	0.000000 -0.000000 -39726074444.216125	0.000000 0.000000 240546802739.268433	-0.000000 0.000000 109930875562.726898	0.000000 0.000000 -179576585504.281555	0.000000 0.000000 57938317254.447609	0.000000 0.000000 -257412138618.571533	-0.000000 0.000000 298930307079.961121	0.000000 0.000000 -911458672558.302002	-0.000000 0.000000 -65229835405.279167	-0.000000 0.000000 1025901424666.562256	0.000000 0.000000 338136911189.596497	-0.000000 0.000000 640630070129.376099	0.000000 -0.000000 -62019232392.295448	0.000000 0.000000 35891565109.933258	0.000000 -0.000000 28399094530.433506	-0.000000 0.000000 204461483675.574829	0.000000 -0.000000 -155034193933.445709	-0.000000 0.000000 -165750966322.032745	0.000000 0.000000 26539511198.014156	0.000000 0.000000 106715782210.076187	-0.000000 0.000000 701891721351.286377	0.000000 0.000000 -773151278728.385620	-0.000000 0.000000 481820076986.857849	0.000000 0.000000 -481825180893.942200	0.000000 0.000000 43457815726.622665	-0.000000 0.000000 243186535925.239807	0.000000 -0.000000 -126100092527.672272	-0.000000 0.000000 2835710932.438683	0.000000 0.000000 145412411564.912689	0.000000 -0.000000 -171001242243.419983	0.000000 0.000000 371010815045.163269	-0.000000 0.000000 399126874994.449829	-0.000000 0.000000 -291993663822.624146	0.000000 0.000000 369519858695.093140	-0.000000 0.000000 1273428826.490056	0.000000 0.000000 103626459578.324692	-0.000000 0.000000 34707592695.601746	-0.000000 0.000000 -146402597189.866211	-0.000000 0.000000 -322309124959.767395	0.000000 0.000000 64061147142.607811	0.000000 0.000000 23225015054.421585	0.000000 0.000000 -855032266721.640259	-0.000000 0.000000 -202558683713.757294	-0.000000 0.000000 446600157070.087463	0.000000 -0.000000 697034632300.782715	0.000000 0.000000 333828521710.963562	0.000000 -0.000000 -420329542399.810303	0.000000 0.000000 18749387627.770714	-0.000000 0.000000 161540406302.765289	-0.000000 0.000000 229341320682.442505	0.000000 0.000000 257578788366.108978	0.000000 0.000000 -293032956449.845337	0.000000 0.000000 -23334524511.986240	0.000000 0.000000 19914723026.949219	-0.000000 0.000000 -519049311279.879517	-0.000000 0.000000 76927623429.419739	0.000000 -0.000000 -18731325580.606220	0.000000 0.000000 -65326039663.741783	0.000000 -0.000000 69143362995.221710	-0.000000 0.000000 -498603977955.340088	-0.000000 0.000000 500729069352.904480	-0.000000 0.000000 -449063095565.966797	0.000000 -0.000000 -10325293809.500362	-0.000000 0.000000 -826667203.607383	0.000000 0.000000 796392243278.863281	0.000000 -0.000000 -974226290127.192383	0.000000 -0.000000 178103170918.798920	0.000000 -0.000000 55073171298.601334	-0.000000 0.000000 -979502361405.728760	0.000000 -0.000000 366879275852.221497	0.000000 -0.000000 -102851845192.262650	0.000000 0.000000 -264063208779.489441	0.000000 0.000000 217814874168.610382	0.000000 -0.000000 36488328314.843086	0.000000 0.000000 56138435783.403488	0.000000 0.000000 -86543388680.753265	-0.000000 0.000000 745464256382.990112	-0.000000 0.000000 64358075369.095215	-0.000000 0.000000 -92257026093.792572	0.000000 -0.000000 27878471950.870956	-0.000000 0.000000 30790914842.133160	0.000000 -0.000000 -472294721795.834045	0.000000 0.000000 -240271351472.407837	0.000000 0.000000 -186856290978.789459	-0.000000 0.000000 277338796286.349731	0.000000 -0.000000 -64097869056.142685	0.000000 -0.000000 -14212357774.533037	0.000000 -0.000000 -78876415220.240326	-0.000000 0.000000 -25610532305.262817	0.000000 0.000000 834029253691.302734	0.000000 -0.000000 -285056737096.311707	0.000000 -0.000000 -266960342920.560150	-0.000000 0.000000 -121892509785.143250	0.000000 0.000000 -67622855435.465141	0.000000 0.000000 81153799515.312454	0.000000 0.000000 1936938653.121182	0.000000 0.000000 -69867345.183930	0.000000 -0.000000 -98354917797.757950	0.000000 0.000000 403595490005.890747	0.000000 0.000000 677109286884.944702	0.000000 0.000000 88689961345.163971	-0.000000 0.000000 6019065815.191339	0.000000 0.000000 -109519244424.087372	-0.000000 0.000000 -39860301196.358582	0.000000 0.000000 -89087484858.357895	0.000000 -0.000000 -93393540153.459259	0.000000 0.000000 -671802363341.613770	-0.000000 0.000000 663161613313.024170	-0.000000 0.000000 93044826860.638611	0.000000 0.000000 8180779975.276294	0.000000 -0.000000 -61555935499.137474	0.000000 -0.000000 462170461584.709351	-0.000000 0.000000 -145116485463.007812	0.000000 0.000000 382100356131.279968	0.000000 0.000000 143739885123.060272	0.000000 0.000000 -249477784369.710266	-0.000000 0.000000 20154173764.932034	0.000000 -0.000000 -6918595557.447084	-0.000000 0.000000 -51165717380.651062	-0.000000 0.000000 637627471427.173340	0.000000 -0.000000 -399769748559.307678	0.000000 0.000000 -39704673534.820114	-0.000000 0.000000 -6282802847.950773	0.000000 0.000000 480920877533.571167	0.000000 0.000000 -121612801269.290649	0.000000 0.000000 101367152360.783768	0.000000 -0.000000 13914151426.041983	-0.000000 0.000000 -4194443881.935313	0.000000 0.000000 -8878547225.356647	-0.000000 0.000000 -205348365364.011169	0.000000 0.000000 109116494107.013794	0.000000 -0.000000 74403052527.604156	0.000000 0.000000 6279671543.372017	0.000000 0.000000 153749826340.543060	0.000000 -0.000000 -137122150747.647705	0.000000 0.000000 87552048754.013397	0.000000 -0.000000 -7322440378.057534	0.000000 0.000000 -211835431183.616608	0.000000 -0.000000 -19845153613.992435	0.000000 0.000000 284983545778.893066	0.000000 -0.000000 -124331670654.372253	0.000000 0.000000 -2835559389.688736	0.000000 0.000000 46073224646.024132	0.000000 0.000000 -55289174559.709587	0.000000 -0.000000 148276518551.660950	-0.000000 0.000000 -937930539522.917969	0.000000 0.000000 -662255333324.303955	0.000000 -0.000000 -272062376075.730225	-0.000000 0.000000 -184241629749.527313	0.000000 0.000000 1128356650842.985840	-0.000000 0.000000 -55302064334.870285	0.000000 0.000000 -155810063002.891693	0.000000 0.000000 155787603354.374695	-0.000000 0.000000 -15682770196.131945	0.000000 0.000000 184207416542.402863	-0.000000 0.000000 -124373827202.023438	0.000000 0.000000 576377704257.378540	0.000000 -0.000000 -438816783916.536377	-0.000000 0.000000 -481965393908.570251	0.000000 0.000000 65284402594.781525	0.000000 0.000000 -71558173871.867371	0.000000 0.000000 -13394387744.113192	0.000000 0.000000 73022089814.189041	0.000000 -0.000000 665121818225.007446	0.000000 0.000000 -197754920361.322388	0.000000 0.000000 -467363902417.473999	0.000000 0.000000 -106287583501.835876	0.000000 0.000000 106268968389.469666	0.000000 0.000000 -34174774631.434765	0.000000 0.000000 22243213975.445744	0.000000 0.000000 11925990624.757687	0.000000 0.000000 43795843069.419052	0.000000 -0.000000 84580846304.107239	0.000000 -0.000000 411852441439.015076	0.000000 0.000000 -461712322766.977112	0.000000 -0.000000 -20436073552.634605	0.000000 -0.000000 -106392789237.749252	0.000000 0.000000 6259844523.206433	-0.000000 0.000000 160916475868.070099	0.000000 -0.000000 25345173085.584167	0.000000 0.000000 119302778651.125076	-0.000000 0.000000 -32000037889.223629	0.000000 -0.000000 657330372237.874268	-0.000000 0.000000 6250088581.842440	-0.000000 0.000000 -221287568215.199310	-0.000000 0.000000 -37287190929.960381	0.000000 -0.000000 5805183564.832899	0.000000 -0.000000 -33593216843.466400	0.000000 0.000000 -252954021939.215485	0.000000 -0.000000 -15603108839.564075	0.000000 0.000000 2924431634.106934	0.000000 0.000000 359096245267.964172	0.000000 0.000000 -14219961222.042591	0.000000 -0.000000 -25351909177.635086	0.000000 0.000000 39573876596.654785	0.000000 -0.000000 154475790794.047211	0.000000 0.000000 -154476728716.655762	-0.000000 0.000000 92254554758.920197	0.000000 -0.000000 66825655388.109703	0.000000 0.000000 20436334581.591965	0.000000 0.000000 308627833909.296387	0.000000 0.000000 -224188810659.530121	0.000000 0.000000 6915225971.244307	0.000000 -0.000000 -342009573252.510681	0.000000 -0.000000 -200836767800.170929	0.000000 0.000000 -420764041214.397949	0.000000 0.000000 -54583304989.713379	0.000000 0.000000 17188556799.080349	0.000000 -0.000000 10452049793.713497	0.000000 0.000000 104498623504.307037	0.000000 -0.000000 -47983932421.403687	0.000000 -0.000000 130220429088.344025	0.000000 0.000000 -311421697490.187439	0.000000 0.000000 177276267151.646545	0.000000 0.000000 -165189421578.501068	0.000000 -0.000000 -287969294108.375732	0.000000 0.000000 175786381718.533997	0.000000 0.000000 130337380371.930466	0.000000 0.000000 4489158857.476320	0.000000 0.000000 187030120247.785583	-0.000000 0.000000 211504572584.817932	-0.000000 0.000000 496520974627.517883	0.000000 -0.000000 -27552829787.711708	-0.000000 0.000000 -99907866556.166214	0.000000 0.000000 51492077577.698120	-0.000000 0.000000 222117986549.690643	0.000000 -0.000000 24792023238.267635	0.000000 0.000000 -171822792915.969269	-0.000000 0.000000 205895845898.752258	-0.000000 0.000000 -7811822244.153546	0.000000 0.000000 114404336833.136200	0.000000 0.000000 -203970791664.012695	-0.000000 0.000000 32423766359.119190	0.000000 0.000000 -238654526202.367371	-0.000000 0.000000 397561622426.854553	0.000000 -0.000000 -132471827242.243134	0.000000 0.000000 -223673225165.495758	-0.000000 0.000000 -208204261831.057587	0.000000 0.000000 467709432174.232544	0.000000 0.000000 -27956088594.133442	-0.000000 0.000000 -7770805635.771592	0.000000 0.000000 37278011843.011841	0.000000 0.000000 422172633413.412109	0.000000 -0.000000 -177287099100.111755	-0.000000 0.000000 -5122665552.788694	0.000000 0.000000 -337825134559.075073	0.000000 0.000000 367330089469.121338	0.000000 -0.000000 -141755244054.014130	-0.000000 0.000000 -30685096332.157654	-0.000000 0.000000 244983578217.149292	0.000000 0.000000 -224796587896.362854	0.000000 0.000000 224791303199.067078	0.000000 0.000000 -153988430851.821960	-0.000000 0.000000 389449691391.694885	-0.000000 0.000000 -145450578449.919006	0.000000 0.000000 -569181350.661725	0.000000 0.000000 1012589817353.232300	0.000000 0.000000 4037556128.656963	0.000000 0.000000 25351191171.269691	0.000000 0.000000 -18841374533.149933	0.000000 0.000000 130183172978.433487	0.000000 0.000000 -151315834976.614868	0.000000 0.000000 -446976945567.223022	0.000000 0.000000 438809682813.303589	0.000000 -0.000000 180831088611.943665	-0.000000 0.000000 254080006896.492981	0.000000 0.000000 -20214400927.325726	-0.000000 0.000000 46214882883.105705	0.000000 0.000000 161547293935.746399	0.000000 -0.000000 -80245874228.155914	-0.000000 0.000000 -132491351352.628143	0.000000 0.000000 22052153661.368629	0.000000 -0.000000 -117812600267.284943	0.000000 -0.000000 -19638041326.300232	-0.000000 0.000000 -30600743853.603546	0.000000 -0.000000 26261321641.145340	0.000000 0.000000 122031531251.888535	0.000000 0.000000 -135140151414.672836	0.000000 -0.000000 4306642686.768182	-0.000000 0.000000 -1221171330.628599	-0.000000 0.000000 -100096451864.047821	0.000000 0.000000 16954685044.620861	-0.000000 0.000000 -81191582304.796631	0.000000 0.000000 20368918347.595165	0.000000 -0.000000 -46639202015.092377	-0.000000 0.000000 -34268720043.790585	0.000000 0.000000 -71723615520.072815	0.000000 0.000000 -27334320443.322910	0.000000 0.000000 108865310337.353455	0.000000 -0.000000 164142129756.274017	0.000000 -0.000000 -8182261393.958738	0.000000 0.000000 23486108273.438602	0.000000 -0.000000 -23487662957.240505	-0.000000 0.000000 -160919203882.581879	0.000000 -0.000000 96754170643.919266	0.000000 0.000000 -86913646892.835480	-0.000000 0.000000 152044686945.920319	0.000000 0.000000 116635637163.723038	0.000000 -0.000000 98158244883.141342	-0.000000 0.000000 -18289853060.911476	-0.000000 0.000000 99542385580.511658	0.000000 0.000000 -79984847923.187073	0.000000 0.000000 18354173277.469536	0.000000 0.000000 -556698797357.152100	0.000000 0.000000 114534178744.469406	0.000000 0.000000 62740498042.662216	-0.000000 0.000000 15851372132.670223	-0.000000 0.000000 -455128555146.843384	0.000000 0.000000 438823064595.436523	0.000000 -0.000000 -55018417365.992722	-0.000000 0.000000 -234034396954.325165	0.000000 -0.000000 -2924325983.409802	0.000000 0.000000 -632565139041.408325	0.000000 -0.000000 176812946462.339630	0.000000 0.000000 -3306971840.377300	0.000000 0.000000 -52303058759.941010	0.000000 0.000000 -45392769219.319138	0.000000 0.000000 45393014212.380211	0.000000 0.000000 110414527467.717957	0.000000 0.000000 -563287636718.579956	-0.000000 0.000000 87506852377.426025	0.000000 -0.000000 149624409925.984436	-0.000000 0.000000 -101155486751.323334	-0.000000 0.000000 -229611550583.828644	-0.000000 0.000000 282675316614.925537	0.000000 0.000000 -323402535384.352966	-0.000000 0.000000 204389363644.147949	0.000000 -0.000000 -40297253450.200226	0.000000 -0.000000 2837230382.012426	0.000000 0.000000 1348142786.623539	-0.000000 0.000000 -199338703133.057495	-0.000000 0.000000 31131437405.739300	0.000000 0.000000 -365923062099.901184	0.000000 0.000000 -65935813978.419441	-0.000000 0.000000 4194442290.161361	0.000000 0.000000 -46401564457.328598	0.000000 -0.000000 69178754516.397385	0.000000 0.000000 67638329397.002197	-0.000000 0.000000 18289485150.610222	0.000000 -0.000000 -12115308947.339033	0.000000 0.000000 -347942380528.891541	0.000000 -0.000000 43090135981.364815	0.000000 -0.000000 -4489334248.349671	0.000000 0.000000 -144636111690.319946	0.000000 -0.000000 19842488461.865192	0.000000 0.000000 441836888011.781311	0.000000 -0.000000 -131364911498.197205	0.000000 0.000000 -319106294628.274048	-0.000000 0.000000 -193619676753.530365	0.000000 0.000000 160610705417.909973	0.000000 0.000000 -172092522670.416229	0.000000 -0.000000 -54655471716.166504	-0.000000 0.000000 -106441077959.976166	0.000000 0.000000 -6250199279.388332	0.000000 -0.000000 -34043122048.309460	0.000000 0.000000 73849149611.319946	0.000000 -0.000000 -1348201365.922054	0.000000 0.000000 -15852525451.820702	0.000000 -0.000000 -29066345555.413303	0.000000 0.000000 62962058384.588654	-0.000000 0.000000 67003254260.881699	-0.000000 0.000000 -156282836467.885529	0.000000 -0.000000 -242707191883.008545	-0.000000 0.000000 7772202260.233451	0.000000 0.000000 -86297184338.791107	0.000000 0.000000 60738465067.852066	0.000000 0.000000 72299495367.390411	-0.000000 0.000000 -334177780903.077454	0.000000 0.000000 -104232860840.076477	0.000000 -0.000000 -88658945009.255112	0.000000 -0.000000 59013248474.944664	0.000000 0.000000 47983397597.318878	0.000000 0.000000 241294011813.210358	-0.000000 0.000000 -157519346603.646606	0.000000 0.000000 111926544600.365097	0.000000 -0.000000 18909161049.676147	0.000000 0.000000 -179952271253.309723	-0.000000 0.000000 25976678102.433128	0.000000 0.000000 85591865101.925674	
VECTORS branch float
-22.688607 -55.544821 0.000000	-29.642126 -40.265921 0.000000	-29.670016 -40.245375 0.000000	29.762748 -40.176845 0.000000	-29.842289 -40.117799 0.000000	29.670016 -40.245375 0.000000	-24.289666 -54.863577 0.000000	30.495332 -39.623664 0.000000	26.164846 -53.994452 0.000000	4.721860 -59.813912 0.000000	-17.511463 -57.387705 0.000000	-29.738365 -40.194896 0.000000	-20.887012 -45.428325 0.000000	29.747642 -40.188031 0.000000	-29.845766 -40.115212 0.000000	-30.504337 -39.616732 0.000000	31.108162 -39.144377 0.000000	31.113263 -39.140323 0.000000	13.841611 -48.045914 0.000000	-29.516735 -40.357928 0.000000	32.197437 -38.253432 0.000000	28.360502 -41.178659 0.000000	-29.640369 -40.267214 0.000000	-21.840531 -55.883729 0.000000	31.562555 -38.778926 0.000000	8.163475 -59.442053 0.000000	-13.119729 -58.548038 0.000000	16.877714 -57.577276 0.000000	-22.323175 -55.692691 0.000000	-29.663323 -40.250308 0.000000	28.772703 -52.651036 0.000000	29.667963 -40.246887 0.000000	-30.569166 -39.566730 0.000000	-25.058038 -54.516921 0.000000	30.522954 -39.602390 0.000000	26.170401 -53.991759 0.000000	-30.334255 -39.747113 0.000000	32.196153 -38.254513 0.000000	-29.354122 -40.476358 0.000000	31.730327 -38.641769 0.000000	-21.737124 -55.924033 0.000000	-26.178992 -42.598831 0.000000	-21.427145 -56.043532 0.000000	7.356255 -59.547338 0.000000	-25.386134 -54.364917 0.000000	-29.430329 -40.420981 0.000000	26.439552 -53.860469 0.000000	32.318143 -38.151509 0.000000	-29.689865 -40.230734 0.000000	29.689865 -40.230734 0.000000	-25.238783 -54.433481 0.000000	27.404552 -53.375936 0.000000	-31.120440 -39.134616 0.000000	-30.694149 -39.469852 0.000000	30.331030 -39.749574 0.000000	30.814134 -39.376251 0.000000	-31.641593 -38.714463 0.000000	-25.407302 -54.355027 0.000000	30.462799 -39.648680 0.000000	26.440601 -53.859954 0.000000	-24.801117 -54.634281 0.000000	-29.676516 -40.240582 0.000000	26.542822 -53.809651 0.000000	29.676516 -40.240582 0.000000	-31.484738 -38.842132 0.000000	29.928618 -40.053437 0.000000	-26.238897 -53.958505 0.000000	25.054899 -54.518364 0.000000	4.070261 -59.861782 0.000000	-25.939664 -54.102993 0.000000	25.262363 -54.422542 0.000000	-24.655359 -54.700213 0.000000	27.469340 -53.342623 0.000000	-33.246582 -37.345211 0.000000	30.198225 -39.850561 0.000000	-8.826366 -59.347243 0.000000	-28.938853 -52.559897 0.000000	22.248414 -55.722599 0.000000	-0.672280 -59.996234 0.000000	-9.979262 -48.994023 0.000000	-9.348733 -59.267202 0.000000	-23.613132 -44.072894 0.000000	16.015410 -57.823063 0.000000	27.208402 -41.948812 0.000000	-24.197255 -54.904397 0.000000	26.936019 -53.613906 0.000000	6.351058 -59.662920 0.000000	8.998725 -49.183564 0.000000	-32.002722 -38.416478 0.000000	30.003179 -39.997616 0.000000	8.850124 -59.343705 0.000000	-26.131734 -54.010485 0.000000	24.890671 -54.593539 0.000000	-30.348874 -39.735951 0.000000	29.505138 -40.366407 0.000000	7.088900 -59.579757 0.000000	-14.986136 -58.098328 0.000000	15.169203 -58.050799 0.000000	-6.321275 -59.666083 0.000000	23.500624 -55.206165 0.000000	29.063998 -40.685182 0.000000	-25.872306 -54.135236 0.000000	24.370802 -54.827585 0.000000	-30.241843 -39.817471 0.000000	29.546715 -40.335984 0.000000	-25.300390 -54.404874 0.000000	24.701530 -54.679379 0.000000	-55.680524 -22.353506 -0.000000	48.582533 -35.209906 -0.000000	-6.267616 -59.671744 0.000000	-8.305425 -59.422386 -0.000000	31.871469 -50.835121 0.000000	-48.054199 -13.812820 0.000000	4.788561 -59.808609 -0.000000	48.983770 -10.029471 0.000000	-49.677352 -33.647596 0.000000	14.510863 -47.848039 0.000000	54.624503 -24.822645 -0.000000	-3.413590 -59.902816 0.000000	35.846902 -34.856845 0.000000	-59.874686 -3.875814 -0.000000	-54.894869 -24.218865 -0.000000	-2.499425 -49.937490 -0.000000	40.177038 -29.762486 -0.000000	22.837985 -44.479506 0.000000	45.739009 -20.197599 0.000000	-58.484470 -13.400250 0.000000	-57.650930 -16.624389 -0.000000	37.787186 -46.606101 -0.000000	42.232098 -26.766582 0.000000	-22.446363 -44.678415 -0.000000	49.976424 -1.535253 -0.000000	-40.294319 -29.603511 0.000000	-1.827434 -59.972164 0.000000	17.175300 -46.957524 -0.000000	22.871612 -55.469716 0.000000	-46.225322 -38.252054 -0.000000	49.464740 -7.296542 0.000000	-51.194937 -31.290228 0.000000	43.369745 -24.881021 -0.000000	58.065961 -15.111063 0.000000	-42.256070 -26.728722 -0.000000	23.943943 -43.894050 0.000000	-57.110787 -18.394510 0.000000	45.389605 -39.240078 -0.000000	-28.932630 -40.778706 -0.000000	46.765412 -17.691701 0.000000	-9.578705 -59.230469 0.000000	2.532950 -49.935800 -0.000000	-44.518910 -22.761077 0.000000	56.280614 -20.796453 -0.000000	-18.587094 -57.048400 0.000000	35.646617 -35.061641 0.000000	-45.326938 -21.106129 -0.000000	-59.883517 -3.736903 0.000000	-59.650144 -6.469951 -0.000000	-47.974048 -14.088673 0.000000	-3.388965 -59.904215 -0.000000	46.460400 -18.477858 -0.000000	-26.066468 -54.042014 0.000000	25.078462 -43.255875 0.000000	53.538733 -27.085126 0.000000	-2.244612 -59.958000 0.000000	-57.474978 -17.222861 0.000000	42.921224 -25.646998 0.000000	-21.711158 -55.934119 -0.000000	11.197049 -58.945959 0.000000	-43.315401 -41.518382 0.000000	34.025702 -36.636752 0.000000	59.997195 -0.580157 0.000000	-10.792668 -59.021338 0.000000	-42.111992 -26.955150 0.000000	-59.944961 -2.569358 -0.000000	-8.211983 -59.435371 0.000000	-41.013640 -28.598625 0.000000	-13.844945 -48.044953 -0.000000	29.343222 -40.484260 -0.000000	40.472924 -44.293819 0.000000	-52.046812 -29.851790 0.000000	28.195652 -41.291709 0.000000	47.517706 -15.558521 0.000000	-49.793033 -33.476168 0.000000	31.383632 -51.137732 -0.000000	-32.632577 -50.349925 0.000000	13.129005 -48.245510 0.000000	-24.391622 -43.646865 -0.000000	-11.354621 -58.915809 0.000000	59.388097 -8.547156 0.000000	23.591804 -44.084315 -0.000000	-57.053465 -18.571542 0.000000	-26.448082 -53.856280 -0.000000	34.248044 -49.265317 -0.000000	-59.881463 -3.769663 0.000000	-19.775632 -45.923027 0.000000	30.961876 -51.394185 0.000000	-45.597539 -20.514982 0.000000	-17.300425 -57.451678 0.000000	-20.658496 -45.532698 -0.000000	26.706307 -42.270240 -0.000000	-42.444220 -42.408586 -0.000000	35.334344 -35.376321 -0.000000	49.997632 -0.486583 0.000000	-49.790290 -33.480248 -0.000000	3.418260 -59.902550 -0.000000	48.730615 -11.194963 -0.000000	5.809136 -59.718121 0.000000	-49.550605 -33.833970 0.000000	-6.621711 -59.633488 0.000000	34.150835 -36.520138 0.000000	20.007560 -45.822457 -0.000000	-54.911572 -24.180970 0.000000	-42.935112 -25.623742 -0.000000	-10.457696 -59.081610 -0.000000	-59.994654 -0.800940 0.000000	-19.345695 -56.795634 0.000000	-46.914792 -37.403239 0.000000	10.753089 -48.830022 0.000000	-26.507638 -42.395108 -0.000000	43.469827 -24.705752 0.000000	56.321881 -20.684431 -0.000000	49.938848 -33.258254 -0.000000	5.643907 -59.733963 0.000000	-59.008011 -10.865296 -0.000000	-32.692307 -50.311162 -0.000000	40.698069 -29.045949 -0.000000	-49.905520 -3.072300 -0.000000	-31.092677 -51.315158 0.000000	55.850380 -21.925671 0.000000	-31.192843 -39.076931 -0.000000	54.515327 -25.061507 -0.000000	27.460967 -41.783912 -0.000000	-47.312117 -16.172927 -0.000000	26.755335 -42.239224 0.000000	47.303436 -16.198302 0.000000	-51.228262 -31.235639 0.000000	47.661329 -15.112832 -0.000000	-42.402772 -26.495376 -0.000000	-42.916402 -41.930686 -0.000000	45.966665 -38.562491 -0.000000	13.930778 -58.360375 0.000000	-43.857844 -40.944958 0.000000	-26.771577 -53.696207 -0.000000	24.746472 -43.446658 -0.000000	46.807225 -17.580775 -0.000000	-27.145163 -41.989762 0.000000	5.888555 -49.652038 0.000000	32.865747 -37.680800 -0.000000	-59.936197 -2.766286 -0.000000	34.794032 -35.907873 0.000000	-42.041090 -27.065600 0.000000	-49.842837 -3.961267 0.000000	43.118331 -41.723009 -0.000000	29.131549 -52.453340 0.000000	-35.979296 -48.015521 0.000000	50.022667 -33.132050 0.000000	-53.447457 -27.264800 -0.000000	7.037048 -49.502323 0.000000	58.943054 -11.212333 -0.000000	1.320883 -49.982550 -0.000000	-39.199823 -45.424376 0.000000	41.112635 -43.700701 0.000000	-58.756938 -12.149987 0.000000	-24.299208 -43.698381 0.000000	-49.215204 -8.824040 -0.000000	38.860322 -31.462284 0.000000	-49.599312 -6.317300 -0.000000	-2.223353 -49.950543 -0.000000	-4.358662 -59.841474 0.000000	-45.716614 -38.858606 -0.000000	49.303051 -34.193701 -0.000000	-18.040568 -57.223578 0.000000	37.343824 -33.248140 0.000000	34.495449 -36.194806 0.000000	-59.886102 -3.695231 -0.000000	3.841284 -49.852227 0.000000	-27.949118 -41.458977 0.000000	47.020586 -17.001896 -0.000000	8.436690 -59.403891 0.000000	20.453980 -45.624935 -0.000000	19.989715 -56.572178 0.000000	-24.987616 -43.308418 0.000000	10.990882 -48.777049 -0.000000	-25.946252 -54.099834 0.000000	48.971843 -10.087546 -0.000000	-36.777330 -33.873707 0.000000	35.977321 -34.722217 0.000000	-49.680320 -5.644980 -0.000000	59.838260 -4.402573 -0.000000	11.771862 -48.594478 0.000000	52.455952 -29.126844 0.000000	-50.043282 -33.100905 -0.000000	59.827183 -4.550620 -0.000000	31.268655 -39.016294 -0.000000	-33.147404 -50.012495 0.000000	-1.904106 -59.969779 -0.000000	-37.384828 -33.202027 -0.000000	-51.963550 -29.996492 0.000000	52.406103 -29.216440 -0.000000	39.974602 -30.033834 0.000000	35.468132 -35.242186 -0.000000	0.726071 -59.995607 -0.000000	36.770669 -33.880937 -0.000000	-47.134482 -37.126010 0.000000	39.598440 -30.528078 0.000000	43.406412 -24.816998 -0.000000	-56.297826 -20.749814 -0.000000	-12.118054 -58.763533 0.000000	-56.719709 -19.567183 0.000000	59.972794 -1.806650 0.000000	31.561020 -38.780176 0.000000	46.414475 -38.022316 0.000000	42.942122 -25.611993 -0.000000	2.282062 -49.947895 0.000000	30.203721 -39.846396 0.000000	-59.855539 -4.161059 0.000000	40.659946 -29.099292 0.000000	14.638855 -47.809036 0.000000	-19.081817 -46.215628 0.000000	-25.539817 -54.292888 0.000000	-30.890056 -39.316719 -0.000000	-48.766574 -11.037267 -0.000000	24.254652 -43.723128 0.000000	-47.550461 -15.458124 0.000000	4.629108 -49.785252 0.000000	-46.131604 -19.284064 -0.000000	48.367901 -12.670681 0.000000	-30.082657 -39.937873 0.000000	-37.200326 -33.408618 0.000000	2.517637 -49.936575 -0.000000	32.333391 -38.138587 -0.000000	48.997393 -9.962706 -0.000000	35.658858 -35.049192 0.000000	-55.510847 -22.771603 0.000000	-7.807048 -59.489915 0.000000	46.104444 -19.348909 -0.000000	-49.219736 -8.798725 -0.000000	-15.670669 -57.917442 0.000000	-49.944947 -2.345698 0.000000	48.809162 -34.895068 0.000000	-17.777496 -46.732865 -0.000000	-59.947995 -2.497576 0.000000	-31.951406 -38.459169 0.000000	-2.898480 -59.929949 -0.000000	-52.963488 -28.193419 -0.000000	34.233065 -36.443069 -0.000000	-3.656203 -59.888498 0.000000	34.112582 -36.555871 0.000000	-8.555111 -49.262664 -0.000000	18.687503 -46.376473 0.000000	-15.604666 -47.502573 0.000000	8.554992 -49.262685 0.000000	33.114061 -37.462768 -0.000000	-48.072421 -35.903236 -0.000000	12.488951 -48.415143 0.000000	22.252873 -55.720819 -0.000000	22.979929 -55.424930 0.000000	48.282932 -12.990706 0.000000	-29.141964 -40.629373 -0.000000	47.558244 -15.434164 -0.000000	32.199127 -38.252010 0.000000	48.986965 -10.013855 0.000000	49.835478 -33.412948 -0.000000	2.201134 -49.951527 0.000000	-39.394909 -30.790276 -0.000000	43.860796 -24.004803 -0.000000	43.199475 -41.638988 0.000000	8.294006 -49.307296 0.000000	-51.921892 -30.068540 0.000000	50.985622 -31.630149 0.000000	-35.798804 -34.906241 -0.000000	-47.386673 -15.953157 -0.000000	47.263792 -16.313613 0.000000	-6.113411 -49.624855 0.000000	-53.685531 -26.792980 0.000000	26.206338 -42.582013 0.000000	-18.705342 -57.009738 0.000000	-45.581196 -20.551267 0.000000	-25.694637 -42.892722 -0.000000	23.390765 -44.191313 -0.000000	37.457777 -33.119706 -0.000000	-21.261078 -45.254465 -0.000000	-46.357284 -38.092024 0.000000	42.984069 -41.861317 0.000000	35.253605 -35.456781 0.000000	21.464440 -45.158364 -0.000000	-48.694465 -11.351169 -0.000000	46.619994 -18.071419 -0.000000	4.158040 -59.855749 0.000000	-53.903883 -26.350928 0.000000	-45.499396 -20.731738 -0.000000	25.326406 -43.111172 0.000000	46.854779 -17.453643 -0.000000	-37.992907 -46.438551 0.000000	-43.994798 -23.758320 0.000000	39.673593 -45.011176 -0.000000	-6.614451 -49.560559 -0.000000	-11.294821 -48.707566 0.000000	53.586165 -26.991164 0.000000	10.614763 -48.860278 0.000000	-24.152734 -43.779509 0.000000	43.775834 -24.159394 -0.000000	37.087002 -33.534374 -0.000000	-39.850461 -30.198357 -0.000000	49.994624 -0.733187 0.000000	-19.245939 -46.147523 0.000000	-49.163198 -9.109333 -0.000000	44.471954 -22.852688 0.000000	-33.100512 -37.474739 -0.000000	-47.763771 -14.785878 0.000000	20.112406 -45.776534 0.000000	-26.289174 -53.934028 0.000000	-58.112578 -14.930782 0.000000	-20.775361 -45.479494 0.000000	46.263172 -18.966258 0.000000	-1.525902 -49.976711 0.000000	-5.666080 -49.677918 -0.000000	14.954299 -47.711308 0.000000	41.045099 -28.553456 0.000000	-37.868132 -32.649726 0.000000	59.349503 -8.811158 -0.000000	49.409442 -7.662052 -0.000000	13.055227 -58.562454 0.000000	-44.650104 -40.079524 0.000000	-13.759618 -48.069459 -0.000000	49.517776 -6.927473 -0.000000	-43.000617 -25.513661 0.000000	-10.189377 -59.128475 0.000000	-54.257353 -25.615223 -0.000000	39.162689 -31.085106 0.000000	25.878370 -42.782122 -0.000000	-38.064778 -32.420251 0.000000	34.915620 -48.794462 0.000000	-43.849658 -24.025143 -0.000000	-10.940594 -48.788353 -0.000000	-27.330795 -41.869173 0.000000	-49.999962 -0.061965 -0.000000	46.044553 -19.491002 -0.000000	10.801690 -48.819294 0.000000	39.318166 -30.888215 0.000000	-38.201378 -46.267210 0.000000	-19.280472 -46.133105 -0.000000	45.633472 -38.956210 0.000000	-20.883111 -56.248517 0.000000	-46.984724 -17.100751 0.000000	-9.779886 -59.197583 -0.000000	-31.097781 -39.152625 0.000000	0.434180 -49.998115 0.000000	-34.049004 -36.615097 0.000000	-3.915980 -49.846415 0.000000	30.978710 -39.246905 -0.000000	-3.174797 -49.899105 0.000000	-32.127308 -38.312349 -0.000000	-3.195473 -49.897785 0.000000	28.067559 -41.378885 0.000000	-49.600383 -6.308881 0.000000	22.376797 -44.713297 0.000000	-46.025590 -19.535738 -0.000000	-26.178429 -42.599177 0.000000	-47.262005 -16.318790 0.000000	-23.767481 -43.989849 0.000000	-2.777711 -49.922784 -0.000000	31.816166 -38.571124 0.000000	-46.152208 -19.234700 -0.000000	-15.356191 -47.583478 0.000000	45.751784 -20.168646 -0.000000	36.481900 -34.191680 0.000000	8.488362 -49.274209 -0.000000	-22.339813 -44.731787 0.000000	42.374309 -26.540873 -0.000000	-46.381554 -18.674887 -0.000000	-41.473695 -27.927273 -0.000000	35.826265 -48.129812 -0.000000	-28.085137 -41.366956 -0.000000	27.989876 -53.071337 0.000000	29.451339 -40.405676 0.000000	-12.401038 -48.437736 0.000000	48.907372 -10.395624 0.000000	26.630818 -42.317840 0.000000	-27.662068 -41.651050 -0.000000	56.430954 -20.384980 -0.000000	-28.201708 -52.959076 0.000000	46.501523 -18.374122 -0.000000	-24.487422 -54.775598 -0.000000	28.087558 -41.365313 0.000000	-23.850906 -43.944673 0.000000	-58.892272 -11.476077 -0.000000	-7.264467 -49.469460 0.000000	-34.250134 -36.427028 -0.000000	34.193997 -36.479728 -0.000000	31.986311 -38.430143 0.000000	-29.498259 -40.371434 0.000000	-37.524913 -33.043621 -0.000000	15.429689 -47.559696 -0.000000	-29.262094 -52.380625 0.000000	47.313220 -16.169702 -0.000000	-24.731301 -43.455296 0.000000	-46.520808 -18.325239 -0.000000	15.961093 -47.384001 0.000000	45.685130 -20.319175 -0.000000	-16.700548 -57.628914 0.000000	28.079357 -41.370880 0.000000	0.285333 -49.999186 0.000000	-1.656669 -49.972547 0.000000	59.970376 -1.885191 0.000000	45.103152 -21.580214 -0.000000	3.031852 -49.907994 -0.000000	-8.002682 -59.463914 0.000000	-0.069634 -49.999952 -0.000000	-32.232358 -38.224012 0.000000	14.491361 -47.853949 0.000000	48.839205 -10.711306 0.000000	-49.907501 -3.039963 0.000000	57.674877 -16.541117 -0.000000	40.145646 -44.590662 0.000000	-41.135279 -28.423384 -0.000000	49.980752 -1.387221 -0.000000	-46.246518 -19.006830 -0.000000	-40.591240 -29.195055 0.000000	-39.852734 -30.195357 0.000000	-43.131273 -25.292158 0.000000	30.390998 -39.703743 0.000000	-48.678853 -11.417935 0.000000	27.628220 -41.673510 -0.000000	-33.940050 -36.716113 0.000000	14.699991 -47.790274 0.000000	-28.505088 -41.078704 -0.000000	-36.300996 -34.383684 -0.000000	34.778296 -35.923114 0.000000	-57.950978 -15.546195 0.000000	35.080734 -48.675888 0.000000	-41.974737 -27.168391 0.000000	-45.715829 -20.250011 0.000000	51.075942 -31.484094 0.000000	20.735350 -45.497750 -0.000000	-32.815734 -37.724364 0.000000	0.967291 -49.990643 -0.000000	29.808922 -52.071376 0.000000	-30.377408 -39.714142 0.000000	-48.999104 -9.954287 0.000000	-4.512746 -49.795935 0.000000	1.276157 -49.983712 0.000000	26.911313 -42.140019 0.000000	23.555662 -55.182704 0.000000	-37.453228 -33.124851 0.000000	9.347292 -49.118511 -0.000000	34.356647 -36.326585 -0.000000	-47.772285 -36.301637 0.000000	41.277484 -28.216473 0.000000	24.638408 -43.508032 0.000000	19.516131 -46.033907 0.000000	-38.430981 -31.985305 -0.000000	-6.574194 -49.565915 -0.000000	34.073701 -36.592115 0.000000	19.766211 -56.650657 0.000000	49.942822 -2.390514 0.000000	48.596599 -11.763102 0.000000	-15.376662 -57.996192 0.000000	48.173548 -13.390642 -0.000000	-34.921522 -35.783897 0.000000	22.825305 -55.488787 0.000000	15.482271 -57.968088 -0.000000	6.126603 -49.623228 0.000000	-40.112868 -44.620150 0.000000	58.889032 -11.492689 -0.000000	-49.752875 -4.965020 -0.000000	-46.001955 -38.520386 -0.000000	57.176304 -18.189840 -0.000000	42.109182 -42.741277 0.000000	-38.225012 -46.247686 0.000000	-13.149715 -48.239869 -0.000000	33.013521 -50.100972 -0.000000	46.892726 -17.351433 0.000000	-27.187833 -53.486650 0.000000	-37.186144 -33.424403 -0.000000	39.794953 -30.271467 0.000000	-29.208639 -52.410451 0.000000	-7.709252 -49.402099 -0.000000	41.028457 -28.577363 -0.000000	-42.716158 -25.987110 -0.000000	3.684844 -49.864034 -0.000000	37.256458 -33.346009 -0.000000	39.232008 -30.997573 0.000000	-47.832334 -14.562550 0.000000	-27.061796 -42.043539 0.000000	8.626349 -49.250240 0.000000	-22.238952 -55.726376 -0.000000	36.875258 -47.330913 -0.000000	28.723219 -52.678048 0.000000	15.723301 -47.463436 0.000000	43.699050 -24.298005 0.000000	-28.535331 -41.057702 0.000000	-47.951827 -14.164119 0.000000	59.687425 -6.116476 0.000000	-35.170869 -48.610801 -0.000000	42.590194 -42.261985 -0.000000	0.412868 -49.998295 0.000000	-49.869502 -3.610089 -0.000000	51.854297 -30.184960 -0.000000	-0.295591 -59.999272 -0.000000	-52.080198 -29.793505 0.000000	-0.945309 -59.992553 0.000000	-22.437781 -55.646617 0.000000	-5.900990 -49.650562 -0.000000	40.004036 -44.717749 0.000000	53.391368 -27.374475 -0.000000	-46.877501 -17.392525 0.000000	31.500216 -51.066001 0.000000	-39.883692 -30.154454 -0.000000	49.971852 -1.677488 0.000000	-31.077338 -51.324449 0.000000	-49.053181 -9.684290 0.000000	3.506623 -59.897442 -0.000000	-54.528512 -25.032806 -0.000000	-8.951496 -59.328498 0.000000	-55.908678 -21.776587 0.000000	49.544371 -33.843099 0.000000	-59.439734 -8.180345 -0.000000	46.592116 -18.143174 -0.000000	-11.688694 -48.614550 0.000000	21.659015 -55.954330 -0.000000	-49.191019 -8.957884 -0.000000	-33.362720 -37.241494 -0.000000	2.023548 -49.959036 -0.000000	-6.540301 -59.642472 0.000000	-55.249222 -23.399220 0.000000	11.585375 -58.870868 -0.000000	21.708547 -55.935132 0.000000	59.370889 -8.665884 0.000000	-22.857306 -44.469580 0.000000	-57.947192 -15.560302 0.000000	42.667294 -26.067259 -0.000000	59.964823 -2.054276 0.000000	27.171304 -53.495049 0.000000	-33.695368 -36.940793 0.000000	59.999993 -0.028157 -0.000000	-18.333892 -57.130276 -0.000000	-58.452768 -13.537867 -0.000000	40.660342 -29.098739 0.000000	-9.491856 -59.244448 0.000000	-56.396994 -20.478747 0.000000	45.698540 -38.879859 0.000000	-42.503402 -42.349271 -0.000000	-46.331940 -38.122846 0.000000	-1.119808 -49.987459 0.000000	45.628079 -38.962525 0.000000	41.226398 -43.593395 -0.000000	-43.577427 -24.515461 -0.000000	25.822005 -54.159247 0.000000	-23.687523 -44.032956 0.000000	23.066474 -55.388968 -0.000000	43.693967 -41.119792 0.000000	-26.921055 -42.133796 -0.000000	-0.813394 -49.993383 0.000000	-48.145900 -13.489711 0.000000	-23.208264 -44.287430 0.000000	-36.994228 -33.636692 -0.000000	-7.265768 -49.469269 -0.000000	37.386527 -46.928111 -0.000000	43.607430 -24.462054 0.000000	-11.487188 -48.662558 -0.000000	-46.902239 -17.325703 -0.000000	-30.150517 -39.886668 0.000000	12.898397 -48.307674 0.000000	-4.911141 -59.798668 -0.000000	-8.292045 -59.424254 0.000000	47.966578 -36.044520 0.000000	45.736557 -20.203153 0.000000	57.551906 -16.964023 -0.000000	18.548774 -57.060871 0.000000	-20.642983 -56.337086 -0.000000	19.129363 -56.868862 0.000000	59.880324 -3.787720 -0.000000	18.843468 -46.313321 0.000000	9.232401 -49.140236 -0.000000	-23.460082 -44.154553 -0.000000	25.993031 -54.077374 0.000000	-18.630371 -46.399453 0.000000	-45.793526 -20.073690 -0.000000	59.878043 -3.823612 0.000000	-21.403712 -56.052485 0.000000	46.064568 -19.443651 -0.000000	-20.450756 -45.626380 -0.000000	24.830480 -54.620942 -0.000000	-56.982871 -18.787028 -0.000000	35.357345 -35.353333 0.000000	0.794305 -49.993690 0.000000	-32.970938 -37.588792 0.000000	47.086506 -37.186838 0.000000	-24.908232 -43.354123 -0.000000	-52.665489 -28.746240 0.000000	46.906262 -17.314808 -0.000000	49.773158 -4.757384 0.000000	-35.111967 -35.597048 -0.000000	6.855954 -59.607012 -0.000000	49.472800 -7.241687 0.000000	-46.483240 -18.420325 0.000000	-25.136471 -43.222191 0.000000	45.360439 -21.034034 -0.000000	22.650604 -44.575219 -0.000000	40.562695 -29.234702 0.000000	-16.120597 -57.793826 0.000000	-9.059011 -59.312177 0.000000	-32.549026 -37.954722 -0.000000	59.860431 -4.090081 0.000000	25.165382 -54.467454 0.000000	56.150867 -21.144270 -0.000000	37.979844 -32.519709 0.000000	38.899178 -31.414232 -0.000000	25.175951 -54.462569 0.000000	-19.815336 -45.905909 0.000000	-16.780948 -57.605553 -0.000000	-10.914066 -48.794294 -0.000000	52.468595 -29.104065 -0.000000	-32.237591 -38.219599 0.000000	46.742988 -37.617722 0.000000	-1.536557 -49.976384 0.000000	3.570083 -59.893693 -0.000000	58.568296 -13.028996 -0.000000	-25.026844 -43.285760 0.000000	14.389566 -47.884657 0.000000	-17.926663 -57.259364 0.000000	11.995830 -48.539675 0.000000	54.789296 -24.456759 0.000000	42.031046 -27.081195 0.000000	9.012511 -59.319260 0.000000	-22.612132 -44.594747 -0.000000	-32.685254 -37.837470 0.000000	58.564461 -13.046223 -0.000000	47.788734 -14.704997 0.000000	-1.343189 -59.984963 0.000000	-51.696392 -30.454606 -0.000000	13.879722 -48.034918 -0.000000	-44.569136 -22.662571 -0.000000	-59.415523 -8.354376 0.000000	38.091833 -46.357440 -0.000000	-22.381634 -44.710876 0.000000	-36.150607 -34.541766 0.000000	59.801452 -4.877120 -0.000000	41.739152 -43.102705 0.000000	58.595190 -12.907506 0.000000	-52.488502 -29.068147 0.000000	-45.700113 -20.285456 0.000000	46.670378 -37.707768 -0.000000	50.418542 -32.526460 0.000000	-6.832928 -59.609656 0.000000	-41.622639 -27.704800 0.000000	13.876015 -48.035989 -0.000000	-30.557887 -51.635410 -0.000000	59.994354 -0.823127 0.000000	-5.073338 -59.785126 0.000000	-47.740223 -14.861734 0.000000	-3.046945 -59.922584 0.000000	-53.657953 -26.848167 0.000000	-9.621682 -49.065499 0.000000	46.877391 -17.392821 0.000000	-25.878932 -54.132069 -0.000000	-30.834972 -39.359935 0.000000	34.109232 -49.361526 -0.000000	-0.235853 -59.999536 0.000000	-36.427830 -34.249281 0.000000	33.119597 -50.030913 0.000000	-28.270510 -41.240493 0.000000	-59.860154 -4.094141 0.000000	48.090083 -35.879575 0.000000	-5.437207 -49.703489 0.000000	42.372714 -26.543419 0.000000	-36.025032 -34.672713 0.000000	32.281787 -38.182277 -0.000000	17.203126 -46.947337 0.000000	-26.795458 -53.684294 0.000000	-17.329793 -46.900728 -0.000000	19.328613 -46.112956 -0.000000	-37.632344 -46.731218 0.000000	59.944461 -2.581012 0.000000	31.479650 -38.846256 0.000000	-21.958748 -55.837383 0.000000	15.395312 -47.570835 -0.000000	54.643780 -24.780179 -0.000000	-38.560254 -31.829339 -0.000000	24.672119 -54.692655 0.000000	39.172514 -31.072724 -0.000000	-45.364435 -39.269174 0.000000	-10.025171 -48.984650 -0.000000	43.659099 -41.156811 0.000000	-33.006005 -50.105924 0.000000	59.978419 -1.609116 0.000000	-32.636130 -37.879850 0.000000	-48.178602 -13.372446 -0.000000	46.472695 -18.446913 -0.000000	11.984943 -48.542364 0.000000	31.307284 -38.985304 -0.000000	48.777785 -10.987614 -0.000000	6.969504 -59.593842 0.000000	55.520459 -22.748157 0.000000	-49.041507 -34.567768 0.000000	8.425832 -49.284940 -0.000000	42.561472 -42.290911 0.000000	46.599673 -37.795112 -0.000000	54.208804 -25.717806 0.000000	-34.438444 -36.249050 0.000000	4.670571 -59.817939 0.000000	-49.472673 -7.242560 0.000000	41.230440 -28.285170 0.000000	5.844784 -59.714642 0.000000	47.655603 -15.130879 0.000000	44.499764 -22.798486 -0.000000	58.945123 -11.201451 -0.000000	50.138136 -32.957052 0.000000	-48.666241 -11.471575 -0.000000	41.687985 -27.606374 -0.000000	-3.994232 -59.866903 0.000000	-33.644734 -36.986915 0.000000	15.130966 -58.060777 -0.000000	57.789173 -16.137268 -0.000000	19.722466 -56.665901 0.000000	-24.628231 -43.513794 0.000000	-59.866023 -4.007406 -0.000000	-22.132930 -55.768570 0.000000	-46.238464 -19.026415 0.000000	-24.981008 -43.312230 0.000000	7.471201 -49.438661 0.000000	46.478004 -18.433534 -0.000000	33.199012 -37.387506 -0.000000	-43.446248 -41.381440 0.000000	-49.493750 -33.917086 -0.000000	44.356746 -23.075508 -0.000000	6.455485 -59.651712 0.000000	54.491332 -25.113637 0.000000	-52.683117 -28.713919 0.000000	16.668216 -47.139904 -0.000000	44.097577 -23.567004 -0.000000	-49.727756 -33.573059 0.000000	-39.351293 -45.293220 -0.000000	32.489946 -50.442079 0.000000	-47.844382 -14.522916 -0.000000	-34.240136 -49.270814 0.000000	38.954908 -31.345098 0.000000	-49.485411 -7.155002 0.000000	10.503062 -48.884412 0.000000	-16.986922 -47.025998 -0.000000	47.012089 -37.280873 0.000000	3.121902 -49.902442 0.000000	-53.537391 -27.087779 0.000000	7.519542 -49.431331 0.000000	-36.823491 -33.823520 0.000000	24.491023 -43.591166 -0.000000	40.103739 -29.861181 -0.000000	16.476839 -47.207137 0.000000	-16.908361 -47.054302 0.000000	-21.403670 -56.052501 0.000000	-46.697753 -17.869524 0.000000	-48.700422 -11.325586 0.000000	43.684619 -24.323940 -0.000000	2.896066 -49.916058 0.000000	-34.244637 -36.432195 -0.000000	14.116168 -47.965965 -0.000000	-45.987596 -19.625011 0.000000	-23.365588 -44.204630 0.000000	35.175366 -35.534401 0.000000	39.809751 -30.252003 0.000000	-30.024630 -39.981516 -0.000000	-48.445236 -12.371704 -0.000000	-51.186909 -31.303360 0.000000	-9.459677 -49.096991 0.000000	57.728421 -16.353268 0.000000	15.209048 -58.040373 0.000000	29.887411 -52.026365 -0.000000	-33.149361 -37.431536 0.000000	-29.341462 -40.485536 -0.000000	-48.327919 -12.822336 0.000000	23.831694 -43.955095 -0.000000	-48.594116 -11.773354 -0.000000	-59.966224 -2.012964 0.000000	-10.859170 -59.009138 0.000000	45.810082 -38.748373 0.000000	9.654352 -49.059082 0.000000	-26.689342 -42.280954 0.000000	49.975939 -1.550977 -0.000000	11.552230 -48.647158 -0.000000	-47.516372 -15.562594 -0.000000	-3.534836 -49.874893 0.000000	-44.853284 -22.094862 0.000000	-16.946500 -47.040580 0.000000	-49.711704 -5.361576 -0.000000	28.293059 -41.225027 0.000000	-41.956684 -27.196262 0.000000	49.921374 -2.802928 -0.000000	22.378400 -44.712495 -0.000000	-5.845214 -59.714600 0.000000	44.796716 -22.209328 -0.000000	22.356807 -44.723296 0.000000	39.352324 -45.292324 -0.000000	-35.391056 -35.319586 -0.000000	-38.374084 -32.053544 0.000000	41.068766 -28.519405 0.000000	9.521026 -49.085131 0.000000	-49.597278 -6.333243 0.000000	-41.549384 -27.814541 -0.000000	-42.617100 -26.149241 0.000000	34.796881 -35.905112 0.000000	49.390817 -7.781205 -0.000000	-48.176164 -13.381226 -0.000000	59.999308 -0.288104 -0.000000	-59.648449 -6.485564 -0.000000	22.134515 -44.833729 0.000000	25.504556 -43.006018 0.000000	-36.952309 -33.682739 -0.000000	11.596868 -48.636536 -0.000000	-7.519268 -59.526974 0.000000	-42.817222 -42.031958 -0.000000	-35.182993 -35.526849 -0.000000	-1.362127 -49.981443 0.000000	-44.079487 -23.600822 0.000000	29.001610 -40.729677 0.000000	42.173810 -26.858328 0.000000	-32.122369 -38.316490 -0.000000	32.883354 -37.665436 -0.000000	-58.653209 -12.641246 -0.000000	-38.440456 -31.973917 -0.000000	8.351063 -59.415989 0.000000	-41.453524 -27.957206 -0.000000	28.994013 -40.735085 -0.000000	-17.528798 -57.382412 -0.000000	43.136886 -25.282585 -0.000000	34.291693 -36.387907 0.000000	-13.504798 -48.141670 0.000000	48.479532 -12.236625 0.000000	14.274624 -47.919048 0.000000	49.011347 -9.893831 0.000000	48.669340 -11.458419 -0.000000	-34.090678 -36.576300 0.000000	-28.989007 -40.738649 0.000000	58.007110 -15.335423 -0.000000	-40.828547 -28.862254 0.000000	-59.306243 -9.097775 -0.000000	-49.094137 -9.474475 -0.000000	22.452472 -44.675346 -0.000000	36.690986 -33.967212 -0.000000	59.899538 -3.470646 0.000000	-35.479412 -35.230830 0.000000	-15.454613 -47.551603 -0.000000	-22.472890 -44.665078 -0.000000	47.591585 -15.331049 0.000000	-49.966852 -1.820366 0.000000	-22.833860 -44.481623 0.000000	29.222454 -40.571520 0.000000	8.562315 -59.385914 0.000000	-41.622096 -27.705616 0.000000	-43.775102 -24.160721 -0.000000	43.137942 -25.280782 0.000000	27.105577 -42.015327 0.000000	41.946996 -42.900461 0.000000	-48.471599 -12.268010 0.000000	15.052887 -47.680296 0.000000	-28.630522 -40.991380 0.000000	-43.554209 -24.556686 -0.000000	18.075115 -57.212675 0.000000	44.716975 -22.369447 0.000000	-46.332407 -38.122278 0.000000	-25.143544 -43.218077 0.000000	0.112247 -49.999874 0.000000	-36.922793 -33.715091 -0.000000	40.719525 -29.015863 -0.000000	49.997810 -0.467985 0.000000	-43.141230 -25.275170 0.000000	13.230591 -58.523085 0.000000	5.664156 -49.678137 0.000000	59.997116 -0.588274 -0.000000	14.029037 -47.991521 0.000000	-24.411898 -43.635527 -0.000000	21.893732 -44.951802 -0.000000	36.317561 -34.366187 0.000000	-3.682418 -59.886892 0.000000	-49.911272 -2.977411 0.000000	-47.422406 -15.846621 0.000000	-26.480850 -42.411845 0.000000	23.302052 -44.238155 0.000000	14.876260 -58.126559 -0.000000	-47.753075 -36.326903 -0.000000	51.558570 -30.687356 -0.000000	-43.329929 -41.503220 -0.000000	-26.120914 -54.015719 0.000000	-47.892549 -14.363276 0.000000	-42.805853 -42.043536 -0.000000	38.162354 -32.305336 0.000000	-45.362306 -21.030006 0.000000	-19.248081 -46.146629 0.000000	32.085478 -38.347387 0.000000	49.761388 -4.878966 -0.000000	-52.790585 -28.515857 -0.000000	6.551807 -59.641209 -0.000000	-58.734546 -12.257777 0.000000	-24.571223 -43.546010 0.000000	23.855374 -55.053802 0.000000	1.415061 -49.979972 -0.000000	45.897202 -38.645140 -0.000000	55.528797 -22.727796 0.000000	7.526253 -59.526091 0.000000	56.639703 -19.797577 0.000000	9.817830 -49.026628 0.000000	52.011898 -29.912580 -0.000000	-18.712234 -46.366500 0.000000	14.673881 -47.798297 0.000000	38.946443 -31.355615 -0.000000	-43.638188 -24.407141 0.000000	57.651276 -16.623188 0.000000	2.525465 -59.946827 -0.000000	47.985959 -36.018714 -0.000000	27.036163 -42.060027 0.000000	59.059951 -10.579330 0.000000	-55.935327 -21.708043 0.000000	-17.923030 -46.677243 0.000000	27.133484 -53.514242 0.000000	48.957538 -10.156745 0.000000	7.257669 -49.470458 -0.000000	-37.868343 -46.540183 -0.000000	-4.777190 -49.771261 0.000000	-49.665535 -5.773618 -0.000000	32.367809 -50.520540 0.000000	47.700192 -14.989719 -0.000000	-13.945207 -48.015947 0.000000	18.706225 -57.009448 -0.000000	23.386515 -55.254601 -0.000000	59.578106 -7.102764 -0.000000	34.831429 -35.871598 0.000000	4.060617 -49.834841 0.000000	32.546571 -50.405563 -0.000000	-21.817123 -44.989033 -0.000000	-17.376153 -46.883572 0.000000	18.382608 -46.498169 0.000000	56.628480 -19.829656 0.000000	-43.761763 -24.184874 0.000000	-48.243421 -13.136680 -0.000000	-47.600016 -15.304853 0.000000	-22.316975 -44.743185 -0.000000	-27.278322 -41.903379 0.000000	15.386178 -57.993668 0.000000	46.631269 -37.756122 0.000000	-29.839440 -40.119918 -0.000000	-11.868888 -58.814365 0.000000	-43.089997 -25.362416 0.000000	57.068229 -18.526123 -0.000000	-0.951037 -49.990954 0.000000	45.971270 -19.663223 0.000000	-36.392081 -47.703421 -0.000000	45.975219 -19.653988 0.000000	-46.095323 -19.370626 -0.000000	-28.868928 -40.823828 -0.000000	14.955501 -58.106222 -0.000000	-46.126860 -19.295408 0.000000	48.172408 -35.768969 0.000000	-23.864346 -43.937376 0.000000	58.663979 -12.591170 0.000000	26.357375 -53.900731 -0.000000	22.839484 -44.478736 0.000000	-45.531955 -39.074814 0.000000	33.408738 -49.838301 0.000000	-59.878191 -3.821293 -0.000000	-12.378972 -48.443380 0.000000	-40.241231 -29.675635 0.000000	58.219575 -14.507967 0.000000	23.979658 -43.874548 0.000000	-33.715160 -49.631522 0.000000	-28.161695 -52.980364 -0.000000	17.647031 -46.782286 -0.000000	32.600917 -50.370430 0.000000	-44.064898 -40.722043 0.000000	11.960550 -48.548380 -0.000000	15.367821 -47.579723 0.000000	-18.193981 -46.572299 0.000000	55.678576 -22.358357 0.000000	-46.564656 -37.838246 -0.000000	-43.477064 -24.693014 0.000000	-44.089341 -23.582408 -0.000000	39.336033 -30.865458 -0.000000	49.347576 -8.050883 0.000000	9.440987 -59.252576 0.000000	-34.174755 -36.497755 0.000000	19.659861 -45.972708 0.000000	-45.846087 -19.953353 0.000000	46.155110 -19.227735 -0.000000	-12.040198 -48.528689 0.000000	49.815560 -4.290683 0.000000	-43.925527 -40.872339 -0.000000	-52.753481 -28.584441 0.000000	47.435284 -15.808032 -0.000000	47.001998 -37.293595 0.000000	-49.992617 -0.859196 -0.000000	-26.375199 -53.892011 -0.000000	-43.094281 -25.355136 0.000000	49.486330 -7.148646 -0.000000	-11.718680 -58.844478 0.000000	7.162495 -49.484328 -0.000000	12.807965 -48.331729 -0.000000	31.837129 -38.553823 0.000000	48.812138 -10.833982 0.000000	-47.751668 -14.824919 0.000000	30.092367 -39.930558 -0.000000	35.519171 -35.190744 0.000000	-44.329819 -23.127195 -0.000000	47.639067 -15.182863 -0.000000	-32.629980 -50.351608 0.000000	27.549439 -53.301298 0.000000	48.313595 -12.876200 -0.000000	-45.052527 -39.626630 0.000000	33.051065 -50.076213 0.000000	44.973030 -39.716829 0.000000	-48.835767 -34.857824 -0.000000	-9.633876 -49.063107 0.000000	5.181011 -49.730847 -0.000000	32.832652 -50.219687 0.000000	-48.227853 -13.193718 -0.000000	-48.627073 -11.636483 0.000000	30.427994 -39.675397 0.000000	-10.631220 -59.050632 0.000000	-56.541013 -20.077695 0.000000	5.353315 -49.712594 -0.000000	-29.876826 -40.092085 0.000000	1.173213 -49.986234 0.000000	-47.983355 -14.056944 0.000000	-59.967901 -1.962354 0.000000	46.907094 -17.312554 -0.000000	-37.491390 -46.844378 -0.000000	15.121185 -58.063325 0.000000	-21.948589 -55.841377 -0.000000	54.432360 -25.241200 0.000000	-45.674386 -20.343315 -0.000000	8.443545 -49.281909 -0.000000	51.628204 -30.570060 -0.000000	-30.357305 -39.729511 -0.000000	-43.511474 -41.312850 0.000000	-34.460975 -36.227631 0.000000	41.667978 -43.171514 0.000000	-40.169169 -29.773106 -0.000000	-49.533348 -6.815235 0.000000	42.925070 -25.640560 -0.000000	54.622725 -24.826556 -0.000000	-47.798370 -36.267283 -0.000000	-49.529871 -33.864315 0.000000	-19.512280 -46.035540 0.000000	38.171264 -46.292058 0.000000	-32.835133 -37.707480 -0.000000	48.336657 -12.789356 -0.000000	-46.037668 -19.507257 -0.000000	-27.877424 -53.130493 0.000000	45.489318 -39.124442 0.000000	-59.971686 -1.843057 0.000000	-38.262602 -46.216591 -0.000000	-1.100686 -59.989903 0.000000	51.463773 -30.846071 0.000000	-53.204538 -27.735845 0.000000	-36.782610 -33.867973 -0.000000	27.331848 -41.868486 -0.000000	1.133253 -49.987156 0.000000	-39.536664 -30.608042 0.000000	-45.029443 -21.733598 -0.000000	39.728159 -44.963023 0.000000	-14.688376 -47.793845 0.000000	23.671417 -55.133148 -0.000000	-46.171273 -19.188892 0.000000	59.805844 -4.822970 0.000000	29.685960 -40.233615 0.000000	-58.002056 -15.354527 0.000000	26.402650 -42.460571 -0.000000	-13.127343 -58.546331 0.000000	50.148464 -32.941335 -0.000000	-29.088742 -40.667494 -0.000000	-48.340134 -12.776205 -0.000000	-34.333047 -36.348891 0.000000	25.957357 -42.734244 0.000000	-11.779607 -58.832311 0.000000	-32.025176 -38.397761 -0.000000	28.019175 -53.055875 0.000000	-42.230990 -26.768330 0.000000	-16.783323 -47.099045 0.000000	32.321059 -38.149039 0.000000	-4.521611 -59.829383 -0.000000	34.515964 -36.175244 -0.000000	38.139119 -32.332764 0.000000	-42.961659 -41.884315 0.000000	-49.903925 -3.098110 -0.000000	-4.135070 -49.828719 -0.000000	49.003824 -9.931026 -0.000000	-49.299439 -8.340583 -0.000000	44.642963 -22.516791 -0.000000	14.722741 -58.165633 0.000000	-46.721237 -37.644734 0.000000	31.813281 -50.871555 0.000000	-24.092220 -43.812840 -0.000000	-39.565122 -30.571247 0.000000	40.120805 -29.838247 0.000000	-12.145090 -48.502544 0.000000	-49.833257 -4.080014 -0.000000	-35.705227 -48.219672 -0.000000	-39.684819 -30.415706 0.000000	-21.480064 -45.150934 -0.000000	-46.321841 -18.822515 -0.000000	44.919988 -21.958933 -0.000000	23.004669 -55.414666 0.000000	-27.027107 -42.065847 0.000000	59.931849 -2.858922 0.000000	25.329835 -43.109157 -0.000000	27.841363 -53.149398 0.000000	-42.428942 -42.423871 0.000000	-22.414499 -44.694410 0.000000	42.963682 -25.575809 0.000000	13.815661 -58.387734 0.000000	-57.765790 -16.220772 -0.000000	5.837365 -59.715368 0.000000	44.853854 -22.093705 -0.000000	8.608764 -49.253316 -0.000000	-4.686639 -59.816682 0.000000	49.791616 -33.478276 0.000000	-53.853694 -26.453348 0.000000	45.510316 -20.707756 0.000000	-44.972270 -21.851657 0.000000	-3.033149 -49.907915 0.000000	-58.223408 -14.492577 0.000000	9.845997 -49.020979 0.000000	-23.136287 -44.325075 0.000000	-41.156584 -28.392528 -0.000000	45.333247 -21.092576 0.000000	-21.548618 -45.118256 0.000000	-49.897008 -3.207584 0.000000	31.676526 -38.685885 0.000000	-46.117591 -38.381868 -0.000000	20.922922 -45.411797 0.000000	44.675214 -22.452735 0.000000	-30.859196 -51.455904 0.000000	37.309324 -33.286850 -0.000000	5.386503 -49.709009 0.000000	-49.603203 -33.756811 0.000000	49.976497 -33.201653 0.000000	-45.110794 -39.560286 0.000000	30.646234 -39.507067 0.000000	-3.443240 -49.881300 0.000000	48.616813 -11.679276 0.000000	-41.831586 -27.388290 0.000000	49.292058 -8.384096 0.000000	-0.978210 -49.990430 0.000000	10.709411 -48.839620 0.000000	-7.071852 -49.497363 -0.000000	57.700371 -16.451967 0.000000	21.836812 -44.979480 0.000000	47.002508 -17.051810 0.000000	-35.966229 -34.733707 0.000000	-11.493395 -48.661092 -0.000000	48.458427 -12.319939 -0.000000	41.060638 -28.531105 0.000000	13.730881 -48.077676 0.000000	-43.257227 -41.578988 -0.000000	57.596391 -16.812367 0.000000	-42.564918 -42.287442 0.000000	10.556073 -48.872992 0.000000	-46.514190 -37.900265 0.000000	39.013993 -31.271526 0.000000	-28.528063 -41.062752 -0.000000	30.258535 -39.804787 -0.000000	46.477709 -18.434278 -0.000000	32.290453 -38.174948 0.000000	32.948392 -50.143828 -0.000000	-10.928327 -58.996370 0.000000	50.221055 -32.830560 0.000000	49.526624 -6.863930 -0.000000	25.104248 -43.240915 0.000000	18.941689 -56.931647 0.000000	-34.706717 -35.992274 0.000000	-10.656614 -48.851168 -0.000000	30.144350 -39.891329 0.000000	38.738855 -31.611724 0.000000	-56.860603 -19.153898 0.000000	49.917680 -2.867967 -0.000000	-26.923843 -42.132015 0.000000	39.241050 -30.986126 0.000000	27.499382 -41.758640 -0.000000	31.313322 -38.980455 0.000000	10.070316 -48.975389 -0.000000	38.495430 -31.907708 -0.000000	24.023791 -43.850399 0.000000	49.980238 -1.405642 0.000000	4.537657 -49.793671 0.000000	-36.648818 -34.012705 0.000000	41.507551 -27.876930 0.000000	47.849437 -14.506253 -0.000000	38.063319 -32.421964 0.000000	-38.324871 -46.164968 0.000000	47.118069 -16.729842 -0.000000	26.115780 -42.637613 0.000000	-4.257836 -49.818378 0.000000	40.925257 -28.724961 0.000000	-19.470050 -56.753125 0.000000	-58.459215 -13.510004 0.000000	-13.592466 -48.116991 0.000000	45.876530 -19.883259 -0.000000	-49.968855 -1.764522 -0.000000	-57.317379 -17.740294 0.000000	25.793905 -42.833100 0.000000	-37.271544 -47.019486 -0.000000	40.721845 -29.012606 -0.000000	37.447059 -46.879823 0.000000	-26.649545 -42.306048 0.000000	6.053935 -49.632146 0.000000	17.873221 -46.696338 0.000000	-34.967545 -35.738925 0.000000	-45.802386 -20.053465 -0.000000	-35.372071 -35.338599 -0.000000	42.438401 -26.438271 -0.000000	-24.642002 -43.505997 0.000000	25.340724 -43.102757 0.000000	24.476284 -54.780576 0.000000	36.697638 -33.960026 -0.000000	-35.686230 -35.021322 -0.000000	-50.896122 -31.773964 0.000000	27.637485 -53.255698 0.000000	-16.638860 -47.150274 0.000000	23.546330 -44.108620 0.000000	-24.813272 -43.408542 0.000000	40.420669 -29.430758 -0.000000	13.935851 -48.018664 0.000000	-6.375730 -49.591835 -0.000000	-27.987639 -41.432983 -0.000000	-1.486431 -59.981585 0.000000	-14.862209 -58.130153 -0.000000	6.545600 -59.641891 0.000000	56.379892 -20.525783 -0.000000	-59.467155 -7.978566 0.000000	-58.803533 -11.922435 -0.000000	-5.488416 -49.697860 0.000000	-7.553553 -49.426145 -0.000000	33.421011 -37.189193 0.000000	55.845773 -21.937403 0.000000	-57.201886 -18.109231 0.000000	-28.262900 -52.926444 -0.000000	38.217646 -32.239906 0.000000	8.316879 -49.303443 0.000000	-22.057623 -44.871609 -0.000000	58.857645 -11.652365 -0.000000	39.903493 -44.807491 0.000000	42.640957 -26.110319 0.000000	18.243447 -57.159222 0.000000	37.819057 -32.706558 0.000000	-42.653960 -26.089072 0.000000	30.356182 -39.730369 -0.000000	49.998851 -0.339033 0.000000	33.607428 -37.020815 0.000000	-29.503350 -52.245118 0.000000	-32.099840 -38.335366 -0.000000	-35.395028 -48.447827 0.000000	-51.853177 -30.186885 0.000000	29.862622 -40.102666 -0.000000	28.209092 -41.282528 0.000000	-30.234459 -39.823077 0.000000	49.991891 -0.900443 -0.000000	-4.507272 -59.830465 0.000000	13.522136 -48.136803 0.000000	-50.942287 -31.699895 -0.000000	-19.858886 -45.887086 0.000000	44.398778 -22.994532 -0.000000	57.902667 -15.725177 0.000000	-42.768687 -42.081343 -0.000000	15.496878 -57.964185 0.000000	59.167265 -9.961662 0.000000	47.223361 -16.430281 -0.000000	12.342092 -58.716887 0.000000	-24.492147 -54.773486 -0.000000	-44.513947 -40.230691 0.000000	-1.225161 -59.987490 0.000000	-38.107835 -32.369629 0.000000	-42.803700 -42.045728 -0.000000	14.675998 -58.177445 0.000000	6.217782 -49.611886 0.000000	-47.645870 -36.467397 0.000000	49.722756 -33.580464 0.000000	52.959794 -28.200359 0.000000	-46.755511 -17.717849 -0.000000	-0.951997 -59.992447 0.000000	-52.682442 -28.715158 0.000000	-52.423374 -29.185440 -0.000000	22.622816 -44.589328 -0.000000	-1.778183 -59.973645 -0.000000	-48.061209 -13.788407 0.000000	50.847435 -31.851818 -0.000000	-52.913112 -28.287853 0.000000	41.300792 -28.182345 -0.000000	-49.747365 -33.543996 -0.000000	51.316472 -31.090509 -0.000000	27.885690 -41.501666 -0.000000	12.280813 -58.729734 0.000000	-29.708877 -40.216696 0.000000	57.033720 -18.632089 0.000000	-45.319171 -21.122801 -0.000000	22.255911 -44.773591 0.000000	-24.945160 -43.332886 0.000000	45.467413 -20.801788 0.000000	49.963682 -1.905390 -0.000000	33.215771 -37.372618 -0.000000	-7.047273 -59.584696 -0.000000	-6.026036 -49.635541 -0.000000	-45.318661 -39.321991 0.000000	-28.705433 -40.938956 -0.000000	37.309988 -46.988986 0.000000	-25.624274 -42.934795 0.000000	43.308995 -24.986616 -0.000000	-48.419690 -12.471313 0.000000	-25.193536 -54.454437 -0.000000	38.436733 -46.071874 -0.000000	-49.711476 -33.597160 0.000000	13.710980 -48.083355 -0.000000	-7.403880 -49.448787 0.000000	27.173510 -53.493928 -0.000000	29.675822 -40.241093 0.000000	-50.059357 -33.076589 0.000000	48.403922 -12.532372 -0.000000	-21.569709 -55.988817 -0.000000	-46.759034 -17.708551 -0.000000	22.787198 -44.505546 -0.000000	-59.971015 -1.864777 -0.000000	-22.159353 -55.758076 -0.000000	47.737201 -36.347760 -0.000000	-21.414161 -56.048494 -0.000000	-59.994964 -0.777397 0.000000	-30.305364 -39.769145 -0.000000	23.473867 -44.147226 -0.000000	45.997150 -19.602607 -0.000000	43.307422 -24.989342 -0.000000	-44.645317 -40.084855 -0.000000	-8.925879 -59.332358 -0.000000	-56.285889 -20.782171 -0.000000	44.020838 -23.710035 0.000000	59.891327 -3.609558 0.000000	49.841118 -3.982829 -0.000000	26.783760 -53.690132 0.000000	-55.278731 -23.329422 -0.000000	3.979394 -59.867891 -0.000000	-46.957720 -17.174764 0.000000	-32.467721 -50.456388 -0.000000	43.204667 -25.166580 0.000000	-13.129560 -58.545834 0.000000	-43.690657 -24.313093 0.000000	-49.438792 -7.470331 -0.000000	48.273918 -13.024163 0.000000	-45.821507 -20.009735 -0.000000	29.296494 -40.518088 0.000000	-43.182284 -25.204967 0.000000	56.984758 -18.781304 -0.000000	-43.175749 -25.216159 -0.000000	31.399602 -38.910988 0.000000	28.142081 -41.328238 -0.000000	-31.527898 -38.807108 -0.000000	38.351786 -32.080220 -0.000000	33.224138 -49.961552 0.000000	-44.956649 -39.735371 -0.000000	-17.990389 -46.651323 0.000000	2.633866 -49.930579 -0.000000	-53.608021 -26.947729 -0.000000	-48.371757 -12.655951 0.000000	20.854297 -56.259206 0.000000	46.584815 -18.161911 0.000000	-33.464327 -37.150220 -0.000000	-2.756654 -49.923951 -0.000000	45.500081 -20.730235 -0.000000	-49.513169 -6.960321 -0.000000	-45.309729 -21.143048 0.000000	34.965761 -35.740671 0.000000	-48.856436 -10.632436 -0.000000	16.730409 -57.620252 -0.000000	49.061722 -9.640925 -0.000000	-55.425216 -22.979239 -0.000000	47.762060 -36.315088 0.000000	-21.933922 -55.847140 0.000000	48.877207 -10.536538 -0.000000	-44.636527 -22.529547 0.000000	-13.727912 -48.078524 0.000000	32.362826 -50.523732 0.000000	58.248067 -14.393149 0.000000	22.921344 -44.436607 0.000000	-46.713321 -17.828787 0.000000	16.155194 -57.784165 -0.000000	19.672749 -45.967194 0.000000	-59.796720 -4.934808 -0.000000	-22.662563 -44.569140 -0.000000	51.931437 -30.052052 0.000000	-9.360341 -59.265369 0.000000	-42.171542 -26.861889 0.000000	-42.473698 -26.381527 -0.000000	49.346445 -8.057816 0.000000	27.139306 -53.511289 -0.000000	47.150503 -37.105661 0.000000	2.547136 -49.935079 0.000000	-49.994670 -0.730056 -0.000000	-57.896237 -15.748832 0.000000	18.873285 -46.301178 -0.000000	-38.972117 -45.619887 -0.000000	-45.520613 -20.685110 0.000000	23.026210 -55.405718 -0.000000	-5.723935 -49.671285 0.000000	33.498678 -37.119248 0.000000	-41.020938 -28.588155 0.000000	-25.304996 -43.123742 -0.000000	54.182908 -25.772319 -0.000000	47.785080 -14.716865 0.000000	-46.018951 -19.551372 0.000000	3.526283 -59.896288 0.000000	-45.130272 -39.538065 -0.000000	57.733729 -16.334519 -0.000000	-48.623178 -11.652748 -0.000000	43.033665 -25.457881 0.000000	-15.295046 -58.017769 0.000000	49.340013 -8.097108 -0.000000	53.228193 -27.690422 -0.000000	-18.823856 -46.321296 0.000000	-43.190763 -25.190435 0.000000	31.570887 -38.772143 -0.000000	15.098565 -47.665851 -0.000000	-30.365008 -39.723624 -0.000000	-34.127878 -36.541592 -0.000000	26.054500 -42.675086 -0.000000	-7.855544 -59.483531 -0.000000	48.822789 -10.785882 0.000000	-59.998787 -0.381582 -0.000000	22.969096 -44.411942 0.000000	54.394545 -25.322587 -0.000000	47.258160 -16.329922 0.000000	-31.752789 -50.909335 0.000000	-49.215713 -8.821201 0.000000	30.288763 -51.793734 0.000000	48.948187 -10.201715 0.000000	-44.195947 -40.579777 0.000000	-28.172839 -52.974439 -0.000000	59.915608 -3.181182 -0.000000	-40.075225 -29.899437 -0.000000	-5.322854 -59.763427 -0.000000	-35.366554 -35.344120 0.000000	-42.513733 -26.316962 0.000000	49.352394 -8.021295 -0.000000	-10.331223 -59.103856 0.000000	29.034899 -40.705954 -0.000000	25.760333 -54.188608 0.000000	-19.897114 -45.870523 0.000000	-10.252054 -48.937669 -0.000000	-1.056520 -59.990697 -0.000000	57.969032 -15.478740 -0.000000	-53.106598 -27.922917 -0.000000	4.736931 -49.775109 0.000000	-41.689225 -27.604501 0.000000	22.337949 -44.732718 0.000000	-33.094036 -50.047825 0.000000	-23.316326 -44.230634 -0.000000	-9.303263 -49.126869 -0.000000	34.195003 -36.478785 0.000000	-44.866731 -22.067543 0.000000	-15.467867 -47.547293 -0.000000	-27.747856 -41.593948 0.000000	52.264349 -29.469269 0.000000	21.503922 -45.139576 -0.000000	-59.396569 -8.488084 0.000000	-4.907787 -49.758553 -0.000000	48.172816 -13.393274 -0.000000	14.354538 -47.895169 -0.000000	44.351264 -23.086044 0.000000	-2.510203 -59.947468 0.000000	45.719858 -20.240915 -0.000000	39.327327 -30.876550 0.000000	-13.217900 -48.221231 0.000000	19.674450 -45.966466 0.000000	10.104229 -48.968404 -0.000000	-49.330700 -8.153650 -0.000000	48.515295 -12.094055 -0.000000	30.052962 -39.960224 -0.000000	-44.310544 -23.164103 -0.000000	8.522983 -49.268233 -0.000000	14.088139 -47.974205 -0.000000	-28.398141 -41.152711 -0.000000	31.527946 -38.807069 0.000000	-46.470159 -18.453302 -0.000000	-30.695445 -39.468844 0.000000	-48.725009 -11.219336 0.000000	14.705003 -47.788732 0.000000	-7.020699 -49.504644 -0.000000	48.423329 -12.457174 0.000000	2.766286 -59.936197 0.000000	-29.613773 -40.286777 -0.000000	-21.516563 -45.133552 0.000000	-45.156040 -21.469328 0.000000	13.808935 -48.055315 0.000000	-53.085180 -27.963613 -0.000000	36.277956 -34.407992 -0.000000	8.461766 -49.278784 0.000000	32.286744 -38.178085 -0.000000	-48.421051 -12.466025 -0.000000	31.004995 -39.226143 -0.000000	38.305953 -32.134933 0.000000	28.154031 -41.320098 0.000000	-49.965210 -1.864887 -0.000000	-34.163044 -36.508717 -0.000000	5.801744 -49.662257 0.000000	39.562760 -30.574304 -0.000000	-34.609047 -36.086201 -0.000000	-26.870822 -42.165850 0.000000	44.343045 -23.101826 0.000000	-24.328308 -43.682187 -0.000000	-48.214977 -13.240693 0.000000	30.134736 -39.898593 -0.000000	-46.888232 -17.363575 -0.000000	9.302879 -49.126942 0.000000	-45.446327 -20.847815 0.000000	-9.356375 -49.116782 -0.000000	49.966223 -1.837549 0.000000	-25.640860 -42.924891 0.000000	34.932063 -35.773608 0.000000	-41.825173 -27.398082 -0.000000	26.038878 -42.684621 0.000000	14.524428 -47.843923 -0.000000	3.882691 -49.849019 0.000000	-26.283852 -42.534211 0.000000	45.791540 -20.078219 0.000000	42.976993 -25.553435 0.000000	-20.513650 -45.598138 -0.000000	49.639970 -5.989436 -0.000000	29.859261 -40.105168 -0.000000	-16.025237 -47.362346 0.000000	-45.507089 -20.714847 -0.000000	22.853072 -44.471756 0.000000	-10.294560 -48.928744 -0.000000	-43.004913 -25.506420 0.000000	49.980573 -1.393656 -0.000000	-32.224028 -38.231035 0.000000	-49.988185 -1.086883 0.000000	-28.140642 -41.329218 -0.000000	37.483708 -33.090356 -0.000000	49.823520 -4.197249 0.000000	49.858944 -3.753095 -0.000000	